# vtk DataFile Version 2.0

ASCII

DATASET UNSTRUCTURED_GRID

POINTS 79 float 

-5.0000000000000003e-02  0.0000000000000000e+00  0.0000000000000000e+00
-5.0000000000000003e-02  5.5555555555555552e-02  0.0000000000000000e+00
-5.0000000000000003e-02  2.7777777777777776e-02  0.0000000000000000e+00
5.0000000000000003e-02  0.0000000000000000e+00  0.0000000000000000e+00
5.0000000000000003e-02  5.5555555555555552e-02  0.0000000000000000e+00
5.0000000000000003e-02  2.7777777777777776e-02  0.0000000000000000e+00
-5.0000000000000003e-02  1.1111111111111110e-01  0.0000000000000000e+00
-5.0000000000000003e-02  8.3333333333333329e-02  0.0000000000000000e+00
5.0000000000000003e-02  1.1111111111111110e-01  0.0000000000000000e+00
5.0000000000000003e-02  8.3333333333333329e-02  0.0000000000000000e+00
-5.0000000000000003e-02  1.6666666666666666e-01  0.0000000000000000e+00
-5.0000000000000003e-02  1.3888888888888890e-01  0.0000000000000000e+00
5.0000000000000003e-02  1.6666666666666666e-01  0.0000000000000000e+00
5.0000000000000003e-02  1.3888888888888890e-01  0.0000000000000000e+00
-5.0000000000000003e-02  2.2222222222222221e-01  0.0000000000000000e+00
-5.0000000000000003e-02  1.9444444444444442e-01  0.0000000000000000e+00
5.0000000000000003e-02  2.2222222222222221e-01  0.0000000000000000e+00
5.0000000000000003e-02  1.9444444444444442e-01  0.0000000000000000e+00
-5.0000000000000003e-02  2.7777777777777779e-01  0.0000000000000000e+00
-5.0000000000000003e-02  2.5000000000000000e-01  0.0000000000000000e+00
5.0000000000000003e-02  2.7777777777777779e-01  0.0000000000000000e+00
5.0000000000000003e-02  2.5000000000000000e-01  0.0000000000000000e+00
-5.0000000000000003e-02  3.3333333333333331e-01  0.0000000000000000e+00
-5.0000000000000003e-02  3.0555555555555558e-01  0.0000000000000000e+00
5.0000000000000003e-02  3.3333333333333331e-01  0.0000000000000000e+00
5.0000000000000003e-02  3.0555555555555558e-01  0.0000000000000000e+00
-5.0000000000000003e-02  3.8888888888888884e-01  0.0000000000000000e+00
-5.0000000000000003e-02  3.6111111111111105e-01  0.0000000000000000e+00
5.0000000000000003e-02  3.8888888888888884e-01  0.0000000000000000e+00
5.0000000000000003e-02  3.6111111111111105e-01  0.0000000000000000e+00
-5.0000000000000003e-02  4.4444444444444442e-01  0.0000000000000000e+00
-5.0000000000000003e-02  4.1666666666666663e-01  0.0000000000000000e+00
5.0000000000000003e-02  4.4444444444444442e-01  0.0000000000000000e+00
5.0000000000000003e-02  4.1666666666666663e-01  0.0000000000000000e+00
-5.0000000000000003e-02  5.0000000000000000e-01  0.0000000000000000e+00
-5.0000000000000003e-02  4.7222222222222221e-01  0.0000000000000000e+00
5.0000000000000003e-02  5.0000000000000000e-01  0.0000000000000000e+00
5.0000000000000003e-02  4.7222222222222221e-01  0.0000000000000000e+00
-5.0000000000000003e-02  5.5555555555555558e-01  0.0000000000000000e+00
-5.0000000000000003e-02  5.2777777777777779e-01  0.0000000000000000e+00
5.0000000000000003e-02  5.5555555555555558e-01  0.0000000000000000e+00
5.0000000000000003e-02  5.2777777777777779e-01  0.0000000000000000e+00
-5.0000000000000003e-02  6.1111111111111105e-01  0.0000000000000000e+00
-5.0000000000000003e-02  5.8333333333333326e-01  0.0000000000000000e+00
5.0000000000000003e-02  6.1111111111111105e-01  0.0000000000000000e+00
5.0000000000000003e-02  5.8333333333333326e-01  0.0000000000000000e+00
-5.0000000000000003e-02  6.6666666666666663e-01  0.0000000000000000e+00
-5.0000000000000003e-02  6.3888888888888884e-01  0.0000000000000000e+00
5.0000000000000003e-02  6.6666666666666663e-01  0.0000000000000000e+00
5.0000000000000003e-02  6.3888888888888884e-01  0.0000000000000000e+00
-5.0000000000000003e-02  7.2222222222222221e-01  0.0000000000000000e+00
-5.0000000000000003e-02  6.9444444444444442e-01  0.0000000000000000e+00
5.0000000000000003e-02  7.2222222222222221e-01  0.0000000000000000e+00
5.0000000000000003e-02  6.9444444444444442e-01  0.0000000000000000e+00
-5.0000000000000003e-02  7.7777777777777768e-01  0.0000000000000000e+00
-5.0000000000000003e-02  7.5000000000000000e-01  0.0000000000000000e+00
5.0000000000000003e-02  7.7777777777777768e-01  0.0000000000000000e+00
5.0000000000000003e-02  7.5000000000000000e-01  0.0000000000000000e+00
-5.0000000000000003e-02  8.3333333333333326e-01  0.0000000000000000e+00
-5.0000000000000003e-02  8.0555555555555547e-01  0.0000000000000000e+00
5.0000000000000003e-02  8.3333333333333326e-01  0.0000000000000000e+00
5.0000000000000003e-02  8.0555555555555547e-01  0.0000000000000000e+00
-5.0000000000000003e-02  8.8888888888888884e-01  0.0000000000000000e+00
-5.0000000000000003e-02  8.6111111111111105e-01  0.0000000000000000e+00
5.0000000000000003e-02  8.8888888888888884e-01  0.0000000000000000e+00
5.0000000000000003e-02  8.6111111111111105e-01  0.0000000000000000e+00
-5.0000000000000003e-02  9.4444444444444442e-01  0.0000000000000000e+00
-5.0000000000000003e-02  9.1666666666666663e-01  0.0000000000000000e+00
5.0000000000000003e-02  9.4444444444444442e-01  0.0000000000000000e+00
5.0000000000000003e-02  9.1666666666666663e-01  0.0000000000000000e+00
-5.0000000000000003e-02  1.0000000000000000e+00  0.0000000000000000e+00
-1.6666666666666670e-02  1.0000000000000000e+00  0.0000000000000000e+00
-5.0000000000000003e-02  9.7222222222222221e-01  0.0000000000000000e+00
-3.3333333333333340e-02  1.0000000000000000e+00  0.0000000000000000e+00
1.6666666666666663e-02  1.0000000000000000e+00  0.0000000000000000e+00
-3.4694469519536142e-18  1.0000000000000000e+00  0.0000000000000000e+00
5.0000000000000003e-02  1.0000000000000000e+00  0.0000000000000000e+00
5.0000000000000003e-02  9.7222222222222221e-01  0.0000000000000000e+00
3.3333333333333333e-02  1.0000000000000000e+00  0.0000000000000000e+00

CELLS 0 0


CELL_TYPES 0


POINT_DATA 79

VECTORS VertexNormals float

0.0000000000000000e+00 0.0000000000000000e+00 0
0.0000000000000000e+00 0.0000000000000000e+00 0
0.0000000000000000e+00 0.0000000000000000e+00 0
0.0000000000000000e+00 0.0000000000000000e+00 0
0.0000000000000000e+00 0.0000000000000000e+00 0
0.0000000000000000e+00 0.0000000000000000e+00 0
0.0000000000000000e+00 0.0000000000000000e+00 0
0.0000000000000000e+00 0.0000000000000000e+00 0
0.0000000000000000e+00 0.0000000000000000e+00 0
0.0000000000000000e+00 0.0000000000000000e+00 0
0.0000000000000000e+00 0.0000000000000000e+00 0
0.0000000000000000e+00 0.0000000000000000e+00 0
0.0000000000000000e+00 0.0000000000000000e+00 0
0.0000000000000000e+00 0.0000000000000000e+00 0
0.0000000000000000e+00 0.0000000000000000e+00 0
0.0000000000000000e+00 0.0000000000000000e+00 0
0.0000000000000000e+00 0.0000000000000000e+00 0
0.0000000000000000e+00 0.0000000000000000e+00 0
0.0000000000000000e+00 0.0000000000000000e+00 0
0.0000000000000000e+00 0.0000000000000000e+00 0
0.0000000000000000e+00 0.0000000000000000e+00 0
0.0000000000000000e+00 0.0000000000000000e+00 0
0.0000000000000000e+00 0.0000000000000000e+00 0
0.0000000000000000e+00 0.0000000000000000e+00 0
0.0000000000000000e+00 0.0000000000000000e+00 0
0.0000000000000000e+00 0.0000000000000000e+00 0
0.0000000000000000e+00 0.0000000000000000e+00 0
0.0000000000000000e+00 0.0000000000000000e+00 0
0.0000000000000000e+00 0.0000000000000000e+00 0
0.0000000000000000e+00 0.0000000000000000e+00 0
0.0000000000000000e+00 0.0000000000000000e+00 0
0.0000000000000000e+00 0.0000000000000000e+00 0
0.0000000000000000e+00 0.0000000000000000e+00 0
0.0000000000000000e+00 0.0000000000000000e+00 0
0.0000000000000000e+00 0.0000000000000000e+00 0
0.0000000000000000e+00 0.0000000000000000e+00 0
0.0000000000000000e+00 0.0000000000000000e+00 0
0.0000000000000000e+00 0.0000000000000000e+00 0
0.0000000000000000e+00 0.0000000000000000e+00 0
0.0000000000000000e+00 0.0000000000000000e+00 0
0.0000000000000000e+00 0.0000000000000000e+00 0
0.0000000000000000e+00 0.0000000000000000e+00 0
0.0000000000000000e+00 0.0000000000000000e+00 0
0.0000000000000000e+00 0.0000000000000000e+00 0
0.0000000000000000e+00 0.0000000000000000e+00 0
0.0000000000000000e+00 0.0000000000000000e+00 0
0.0000000000000000e+00 0.0000000000000000e+00 0
0.0000000000000000e+00 0.0000000000000000e+00 0
0.0000000000000000e+00 0.0000000000000000e+00 0
0.0000000000000000e+00 0.0000000000000000e+00 0
0.0000000000000000e+00 0.0000000000000000e+00 0
0.0000000000000000e+00 0.0000000000000000e+00 0
0.0000000000000000e+00 0.0000000000000000e+00 0
0.0000000000000000e+00 0.0000000000000000e+00 0
0.0000000000000000e+00 0.0000000000000000e+00 0
0.0000000000000000e+00 0.0000000000000000e+00 0
0.0000000000000000e+00 0.0000000000000000e+00 0
0.0000000000000000e+00 0.0000000000000000e+00 0
0.0000000000000000e+00 0.0000000000000000e+00 0
0.0000000000000000e+00 0.0000000000000000e+00 0
0.0000000000000000e+00 0.0000000000000000e+00 0
0.0000000000000000e+00 0.0000000000000000e+00 0
0.0000000000000000e+00 0.0000000000000000e+00 0
0.0000000000000000e+00 0.0000000000000000e+00 0
0.0000000000000000e+00 0.0000000000000000e+00 0
0.0000000000000000e+00 0.0000000000000000e+00 0
0.0000000000000000e+00 0.0000000000000000e+00 0
0.0000000000000000e+00 0.0000000000000000e+00 0
0.0000000000000000e+00 0.0000000000000000e+00 0
0.0000000000000000e+00 0.0000000000000000e+00 0
0.0000000000000000e+00 0.0000000000000000e+00 0
0.0000000000000000e+00 0.0000000000000000e+00 0
0.0000000000000000e+00 0.0000000000000000e+00 0
0.0000000000000000e+00 0.0000000000000000e+00 0
0.0000000000000000e+00 0.0000000000000000e+00 0
0.0000000000000000e+00 0.0000000000000000e+00 0
0.0000000000000000e+00 0.0000000000000000e+00 0
0.0000000000000000e+00 0.0000000000000000e+00 0
0.0000000000000000e+00 0.0000000000000000e+00 0

VECTORS Displacement float
0.0000000000000000e+00 0.0000000000000000e+00 0
1.6598094775888131e-03 2.1083024474589209e-03 0
7.0006069039820493e-04 1.0903736619606722e-03 0
0.0000000000000000e+00 0.0000000000000000e+00 0
1.6269663490254441e-03 -2.1739263618176527e-03 0
7.1992523935536512e-04 -1.1216483924153670e-03 0
5.3846239426130907e-03 4.0620102859884964e-03 0
3.2482749538549358e-03 3.1038007770772097e-03 0
5.3746616469420470e-03 -4.3014448986546140e-03 0
3.1964388462575773e-03 -3.2569993427356879e-03 0
1.1152245178285107e-02 5.7827572007468162e-03 0
8.0096612995257423e-03 4.9568455010675725e-03 0
1.1122880098334354e-02 -6.1334748594541692e-03 0
8.0198025742173780e-03 -5.2429844400207672e-03 0
1.8758265757200535e-02 7.1966732424983935e-03 0
1.4774749341988132e-02 6.5108705141202526e-03 0
1.8744676848101272e-02 -7.8010851164750112e-03 0
1.4711166756377198e-02 -6.9823308212787552e-03 0
2.7959727487317808e-02 8.5527912494631660e-03 0
2.3129939410049968e-02 7.8840650578100181e-03 0
2.7974360270297271e-02 -9.2663216874784120e-03 0
2.3173207560149827e-02 -8.5637038081305336e-03 0
3.8741377562361318e-02 9.7306488664188999e-03 0
3.3166481633321317e-02 9.1746341147861277e-03 0
3.8669357528313714e-02 -1.0592823124692903e-02 0
3.3113638971337969e-02 -9.9490147827649943e-03 0
5.0670291005161017e-02 1.0608937289598320e-02 0
4.4589550673604074e-02 1.0194889257832726e-02 0
5.0602728535307923e-02 -1.1677947437758261e-02 0
4.4534167262708160e-02 -1.1150635781711478e-02 0
6.3647421119083197e-02 1.1408616785682061e-02 0
5.7039880939177480e-02 1.1003379289431191e-02 0
6.3607452594822533e-02 -1.2697201904850988e-02 0
5.6957465273056250e-02 -1.2201631329506439e-02 0
7.7636058851260958e-02 1.2249982633913491e-02 0
7.0502870359562320e-02 1.1833124513134367e-02 0
7.7579987676731743e-02 -1.3602033055983493e-02 0
7.0482473403303936e-02 -1.3156437547627551e-02 0
9.2697958080179305e-02 1.2980900657266906e-02 0
8.5046778201588152e-02 1.2640915161003123e-02 0
9.2606047653656404e-02 -1.4402041025734939e-02 0
8.4959285015955455e-02 -1.4028157715717963e-02 0
1.0846036879808157e-01 1.3421600343076802e-02 0
1.0051368555450413e-01 1.3238810954173286e-02 0
1.0834639524807727e-01 -1.4871597140590474e-02 0
1.0044263803687553e-01 -1.4679458044694610e-02 0
1.2447663169632871e-01 1.3566301579243276e-02 0
1.1646645412331554e-01 1.3516999148827379e-02 0
1.2433443385995120e-01 -1.5115505304215366e-02 0
1.1627863375354923e-01 -1.5020347096176449e-02 0
1.4053299705083558e-01 1.3534769300054598e-02 0
1.3250725690682807e-01 1.3582536336489785e-02 0
1.4043974098049297e-01 -1.4980177037943665e-02 0
1.3243147270207722e-01 -1.5087800814841472e-02 0
1.5625310026307099e-01 1.3157759659385343e-02 0
1.4849211231406062e-01 1.3377807616070360e-02 0
1.5617456897341997e-01 -1.4580098626074985e-02 0
1.4838022940174542e-01 -1.4807048628658514e-02 0
1.7131020026707072e-01 1.2817418779331378e-02 0
1.6381293363921312e-01 1.2964491634580182e-02 0
1.7121136544679888e-01 -1.4207605532656334e-02 0
1.6376190675294600e-01 -1.4364483933660833e-02 0
1.8606617882614201e-01 1.2681464733143948e-02 0
1.7872736501449771e-01 1.2706639176575657e-02 0
1.8596714758799543e-01 -1.4192699142311693e-02 0
1.7858404540689382e-01 -1.4155280844477347e-02 0
2.0098491213779890e-01 1.2849153352811497e-02 0
1.9346038277195671e-01 1.2761725772398291e-02 0
2.0097290468805434e-01 -1.4324782798979861e-02 0
1.9344674661756123e-01 -1.4268701225226037e-02 0
2.1615435898903679e-01 1.2904744073229391e-02 0
2.1611529138957530e-01 3.8142662355933454e-03 0
2.0856726156715683e-01 1.2889081197227301e-02 0
2.1614144051714146e-01 8.3548801689358951e-03 0
2.1605577842122106e-01 -5.2609263725288853e-03 0
2.1608238264260418e-01 -7.2115762612357816e-04 0
2.1603440922979125e-01 -1.4344070419523715e-02 0
2.0849050281455631e-01 -1.4339478885071415e-02 0
2.1603970965387598e-01 -9.8073602505302990e-03 0

VECTORS Stress float
1.3869360055697820e+02 -4.2049641535746023e+00 0
1.3967335274343517e+02 -6.1217889208805047e+00 0
1.3950690516741594e+02 -4.3082105825714478e+00 0
-4.7422312874079608e+00 5.5710658559538651e-01 0
-6.9941858288653407e+00 3.3652617649397598e-01 0
-6.4696024097514311e+00 2.6658713477709739e-01 0
1.3948191315028285e+02 -1.1624062996351597e+01 0
1.3959818437651018e+02 -8.8580981780360162e+00 0
-6.8274542298245819e+00 6.2565370009502885e-01 0
-6.9421648661864310e+00 5.0739751976135494e-01 0
1.3912826634228890e+02 -1.6411015406989350e+01 0
1.3930184039219895e+02 -1.4115926846619345e+01 0
-6.7652320909929244e+00 8.7387933855870870e-01 0
-6.7687178088426663e+00 7.4819564202391575e-01 0
1.3819515165301891e+02 -2.0272993335058118e+01 0
1.3868846993121696e+02 -1.8395273733208569e+01 0
-6.2950036392972493e+00 1.0314117187809870e+00 0
-6.5238501548183194e+00 9.4703572412538506e-01 0
1.3644895722644145e+02 -2.3973437270911518e+01 0
1.3742648906685059e+02 -2.2136172332479077e+01 0
-5.4291592396680244e+00 1.0525805565408746e+00 0
-5.9086204000675480e+00 1.0550670050098461e+00 0
1.3400817787064722e+02 -2.6839967509080566e+01 0
1.3536217663879773e+02 -2.5610500512472186e+01 0
-4.2095051657776139e+00 9.2855428777852467e-01 0
-4.9212153258428657e+00 1.0400840413175274e+00 0
1.3094627613590058e+02 -2.8777287642920669e+01 0
1.3260764189961890e+02 -2.7918570384136046e+01 0
-2.6608416984135488e+00 6.9263978513902202e-01 0
-3.5262317112360506e+00 8.6195447859097385e-01 0
1.2719314649780404e+02 -3.0259567669495482e+01 0
1.2916354399882835e+02 -2.9550571746668993e+01 0
-8.3766551966903080e-01 3.1936121187129629e-01 0
-1.7757127902094112e+00 5.2156680253642662e-01 0
1.2265920379432305e+02 -3.1475481137309998e+01 0
1.2497198743366573e+02 -3.0887172000407077e+01 0
1.2148049578991618e+00 -1.8131973062736506e-01 0
2.0534598113181346e-01 5.3938423004638025e-02 0
1.1749007899066009e+02 -3.2129303766566750e+01 0
1.2009564898857764e+02 -3.1861201477542636e+01 0
3.5128975982175348e+00 -8.4763661713270722e-01 0
2.3597813062219188e+00 -5.4026370677229352e-01 0
1.1218843219226000e+02 -3.1737236852248770e+01 0
1.1484957311021185e+02 -3.2069828851087323e+01 0
6.1611546056686848e+00 -1.6345561012759617e+00 0
4.7881012438597281e+00 -1.2296569536529205e+00 0
1.0670576668700738e+02 -3.0606937083540856e+01 0
1.0949980290768156e+02 -3.1269048158325063e+01 0
9.0392148012807070e+00 -2.4782804276245542e+00 0
7.5639563539423307e+00 -2.0103723470180057e+00 0
1.0086074702419648e+02 -2.8676793871733537e+01 0
1.0383922482627085e+02 -2.9805279026709854e+01 0
1.1980072991737359e+01 -3.2362420638575031e+00 0
1.0498644297663247e+01 -2.8469432749482166e+00 0
9.4245120071798610e+01 -2.6085604003298897e+01 0
9.7696016345658421e+01 -2.7371165602775250e+01 0
1.4778724687287166e+01 -3.9144070107541324e+00 0
1.3413772053033796e+01 -3.5596543441081963e+00 0
8.5860926260915178e+01 -2.2840565152183103e+01 0
9.0368482000738538e+01 -2.4748008534680196e+01 0
1.6940953485190860e+01 -4.2907052358771125e+00 0
1.6018756261783665e+01 -4.2892518091647389e+00 0
7.4219287042297253e+01 -1.7876148581459148e+01 0
8.0449864591794821e+01 -1.9699992914331801e+01 0
1.7861723371209138e+01 -3.8329144400260162e+00 0
1.7391272538727478e+01 -3.6907009370080459e+00 0
5.8796993686618904e+01 -2.7715498031652231e+01 0
6.7440561978063229e+01 -2.3700014697421238e+01 0
2.1148947680874237e+01 -1.0973564310772133e+01 0
1.9679140013138422e+01 -8.0268064450122694e+00 0
2.7950090351988642e+01 6.0899566719449240e+01 0
1.5370940310617033e+01 6.2114596767064782e+01 0
4.5393068818841762e+01 -2.7078016595725103e+00 0
1.9179511339005131e+01 6.9755788798096688e+01 0
1.1627225231735046e+01 4.0396654387413960e+01 0
1.3519938758855982e+01 4.9698121756491261e+01 0
4.4222210646932893e+00 2.7515284975871907e+01 0
1.7207540662443087e+01 -9.6694920363890446e-01 0
8.8791537458735093e+00 3.3107395812845169e+01 0

