# vtk DataFile Version 2.0

ASCII

DATASET UNSTRUCTURED_GRID

POINTS 79 float 

-5.0000000000000003e-02  0.0000000000000000e+00  0.0000000000000000e+00
-5.0000000000000003e-02  5.5555555555555552e-02  0.0000000000000000e+00
-5.0000000000000003e-02  2.7777777777777776e-02  0.0000000000000000e+00
5.0000000000000003e-02  0.0000000000000000e+00  0.0000000000000000e+00
5.0000000000000003e-02  5.5555555555555552e-02  0.0000000000000000e+00
5.0000000000000003e-02  2.7777777777777776e-02  0.0000000000000000e+00
-5.0000000000000003e-02  1.1111111111111110e-01  0.0000000000000000e+00
-5.0000000000000003e-02  8.3333333333333329e-02  0.0000000000000000e+00
5.0000000000000003e-02  1.1111111111111110e-01  0.0000000000000000e+00
5.0000000000000003e-02  8.3333333333333329e-02  0.0000000000000000e+00
-5.0000000000000003e-02  1.6666666666666666e-01  0.0000000000000000e+00
-5.0000000000000003e-02  1.3888888888888890e-01  0.0000000000000000e+00
5.0000000000000003e-02  1.6666666666666666e-01  0.0000000000000000e+00
5.0000000000000003e-02  1.3888888888888890e-01  0.0000000000000000e+00
-5.0000000000000003e-02  2.2222222222222221e-01  0.0000000000000000e+00
-5.0000000000000003e-02  1.9444444444444442e-01  0.0000000000000000e+00
5.0000000000000003e-02  2.2222222222222221e-01  0.0000000000000000e+00
5.0000000000000003e-02  1.9444444444444442e-01  0.0000000000000000e+00
-5.0000000000000003e-02  2.7777777777777779e-01  0.0000000000000000e+00
-5.0000000000000003e-02  2.5000000000000000e-01  0.0000000000000000e+00
5.0000000000000003e-02  2.7777777777777779e-01  0.0000000000000000e+00
5.0000000000000003e-02  2.5000000000000000e-01  0.0000000000000000e+00
-5.0000000000000003e-02  3.3333333333333331e-01  0.0000000000000000e+00
-5.0000000000000003e-02  3.0555555555555558e-01  0.0000000000000000e+00
5.0000000000000003e-02  3.3333333333333331e-01  0.0000000000000000e+00
5.0000000000000003e-02  3.0555555555555558e-01  0.0000000000000000e+00
-5.0000000000000003e-02  3.8888888888888884e-01  0.0000000000000000e+00
-5.0000000000000003e-02  3.6111111111111105e-01  0.0000000000000000e+00
5.0000000000000003e-02  3.8888888888888884e-01  0.0000000000000000e+00
5.0000000000000003e-02  3.6111111111111105e-01  0.0000000000000000e+00
-5.0000000000000003e-02  4.4444444444444442e-01  0.0000000000000000e+00
-5.0000000000000003e-02  4.1666666666666663e-01  0.0000000000000000e+00
5.0000000000000003e-02  4.4444444444444442e-01  0.0000000000000000e+00
5.0000000000000003e-02  4.1666666666666663e-01  0.0000000000000000e+00
-5.0000000000000003e-02  5.0000000000000000e-01  0.0000000000000000e+00
-5.0000000000000003e-02  4.7222222222222221e-01  0.0000000000000000e+00
5.0000000000000003e-02  5.0000000000000000e-01  0.0000000000000000e+00
5.0000000000000003e-02  4.7222222222222221e-01  0.0000000000000000e+00
-5.0000000000000003e-02  5.5555555555555558e-01  0.0000000000000000e+00
-5.0000000000000003e-02  5.2777777777777779e-01  0.0000000000000000e+00
5.0000000000000003e-02  5.5555555555555558e-01  0.0000000000000000e+00
5.0000000000000003e-02  5.2777777777777779e-01  0.0000000000000000e+00
-5.0000000000000003e-02  6.1111111111111105e-01  0.0000000000000000e+00
-5.0000000000000003e-02  5.8333333333333326e-01  0.0000000000000000e+00
5.0000000000000003e-02  6.1111111111111105e-01  0.0000000000000000e+00
5.0000000000000003e-02  5.8333333333333326e-01  0.0000000000000000e+00
-5.0000000000000003e-02  6.6666666666666663e-01  0.0000000000000000e+00
-5.0000000000000003e-02  6.3888888888888884e-01  0.0000000000000000e+00
5.0000000000000003e-02  6.6666666666666663e-01  0.0000000000000000e+00
5.0000000000000003e-02  6.3888888888888884e-01  0.0000000000000000e+00
-5.0000000000000003e-02  7.2222222222222221e-01  0.0000000000000000e+00
-5.0000000000000003e-02  6.9444444444444442e-01  0.0000000000000000e+00
5.0000000000000003e-02  7.2222222222222221e-01  0.0000000000000000e+00
5.0000000000000003e-02  6.9444444444444442e-01  0.0000000000000000e+00
-5.0000000000000003e-02  7.7777777777777768e-01  0.0000000000000000e+00
-5.0000000000000003e-02  7.5000000000000000e-01  0.0000000000000000e+00
5.0000000000000003e-02  7.7777777777777768e-01  0.0000000000000000e+00
5.0000000000000003e-02  7.5000000000000000e-01  0.0000000000000000e+00
-5.0000000000000003e-02  8.3333333333333326e-01  0.0000000000000000e+00
-5.0000000000000003e-02  8.0555555555555547e-01  0.0000000000000000e+00
5.0000000000000003e-02  8.3333333333333326e-01  0.0000000000000000e+00
5.0000000000000003e-02  8.0555555555555547e-01  0.0000000000000000e+00
-5.0000000000000003e-02  8.8888888888888884e-01  0.0000000000000000e+00
-5.0000000000000003e-02  8.6111111111111105e-01  0.0000000000000000e+00
5.0000000000000003e-02  8.8888888888888884e-01  0.0000000000000000e+00
5.0000000000000003e-02  8.6111111111111105e-01  0.0000000000000000e+00
-5.0000000000000003e-02  9.4444444444444442e-01  0.0000000000000000e+00
-5.0000000000000003e-02  9.1666666666666663e-01  0.0000000000000000e+00
5.0000000000000003e-02  9.4444444444444442e-01  0.0000000000000000e+00
5.0000000000000003e-02  9.1666666666666663e-01  0.0000000000000000e+00
-5.0000000000000003e-02  1.0000000000000000e+00  0.0000000000000000e+00
-1.6666666666666670e-02  1.0000000000000000e+00  0.0000000000000000e+00
-5.0000000000000003e-02  9.7222222222222221e-01  0.0000000000000000e+00
-3.3333333333333340e-02  1.0000000000000000e+00  0.0000000000000000e+00
1.6666666666666663e-02  1.0000000000000000e+00  0.0000000000000000e+00
-3.4694469519536142e-18  1.0000000000000000e+00  0.0000000000000000e+00
5.0000000000000003e-02  1.0000000000000000e+00  0.0000000000000000e+00
5.0000000000000003e-02  9.7222222222222221e-01  0.0000000000000000e+00
3.3333333333333333e-02  1.0000000000000000e+00  0.0000000000000000e+00

CELLS 0 0


CELL_TYPES 0


POINT_DATA 79

VECTORS VertexNormals float

0.0000000000000000e+00 0.0000000000000000e+00 0
0.0000000000000000e+00 0.0000000000000000e+00 0
0.0000000000000000e+00 0.0000000000000000e+00 0
0.0000000000000000e+00 0.0000000000000000e+00 0
0.0000000000000000e+00 0.0000000000000000e+00 0
0.0000000000000000e+00 0.0000000000000000e+00 0
0.0000000000000000e+00 0.0000000000000000e+00 0
0.0000000000000000e+00 0.0000000000000000e+00 0
0.0000000000000000e+00 0.0000000000000000e+00 0
0.0000000000000000e+00 0.0000000000000000e+00 0
0.0000000000000000e+00 0.0000000000000000e+00 0
0.0000000000000000e+00 0.0000000000000000e+00 0
0.0000000000000000e+00 0.0000000000000000e+00 0
0.0000000000000000e+00 0.0000000000000000e+00 0
0.0000000000000000e+00 0.0000000000000000e+00 0
0.0000000000000000e+00 0.0000000000000000e+00 0
0.0000000000000000e+00 0.0000000000000000e+00 0
0.0000000000000000e+00 0.0000000000000000e+00 0
0.0000000000000000e+00 0.0000000000000000e+00 0
0.0000000000000000e+00 0.0000000000000000e+00 0
0.0000000000000000e+00 0.0000000000000000e+00 0
0.0000000000000000e+00 0.0000000000000000e+00 0
0.0000000000000000e+00 0.0000000000000000e+00 0
0.0000000000000000e+00 0.0000000000000000e+00 0
0.0000000000000000e+00 0.0000000000000000e+00 0
0.0000000000000000e+00 0.0000000000000000e+00 0
0.0000000000000000e+00 0.0000000000000000e+00 0
0.0000000000000000e+00 0.0000000000000000e+00 0
0.0000000000000000e+00 0.0000000000000000e+00 0
0.0000000000000000e+00 0.0000000000000000e+00 0
0.0000000000000000e+00 0.0000000000000000e+00 0
0.0000000000000000e+00 0.0000000000000000e+00 0
0.0000000000000000e+00 0.0000000000000000e+00 0
0.0000000000000000e+00 0.0000000000000000e+00 0
0.0000000000000000e+00 0.0000000000000000e+00 0
0.0000000000000000e+00 0.0000000000000000e+00 0
0.0000000000000000e+00 0.0000000000000000e+00 0
0.0000000000000000e+00 0.0000000000000000e+00 0
0.0000000000000000e+00 0.0000000000000000e+00 0
0.0000000000000000e+00 0.0000000000000000e+00 0
0.0000000000000000e+00 0.0000000000000000e+00 0
0.0000000000000000e+00 0.0000000000000000e+00 0
0.0000000000000000e+00 0.0000000000000000e+00 0
0.0000000000000000e+00 0.0000000000000000e+00 0
0.0000000000000000e+00 0.0000000000000000e+00 0
0.0000000000000000e+00 0.0000000000000000e+00 0
0.0000000000000000e+00 0.0000000000000000e+00 0
0.0000000000000000e+00 0.0000000000000000e+00 0
0.0000000000000000e+00 0.0000000000000000e+00 0
0.0000000000000000e+00 0.0000000000000000e+00 0
0.0000000000000000e+00 0.0000000000000000e+00 0
0.0000000000000000e+00 0.0000000000000000e+00 0
0.0000000000000000e+00 0.0000000000000000e+00 0
0.0000000000000000e+00 0.0000000000000000e+00 0
0.0000000000000000e+00 0.0000000000000000e+00 0
0.0000000000000000e+00 0.0000000000000000e+00 0
0.0000000000000000e+00 0.0000000000000000e+00 0
0.0000000000000000e+00 0.0000000000000000e+00 0
0.0000000000000000e+00 0.0000000000000000e+00 0
0.0000000000000000e+00 0.0000000000000000e+00 0
0.0000000000000000e+00 0.0000000000000000e+00 0
0.0000000000000000e+00 0.0000000000000000e+00 0
0.0000000000000000e+00 0.0000000000000000e+00 0
0.0000000000000000e+00 0.0000000000000000e+00 0
0.0000000000000000e+00 0.0000000000000000e+00 0
0.0000000000000000e+00 0.0000000000000000e+00 0
0.0000000000000000e+00 0.0000000000000000e+00 0
0.0000000000000000e+00 0.0000000000000000e+00 0
0.0000000000000000e+00 0.0000000000000000e+00 0
0.0000000000000000e+00 0.0000000000000000e+00 0
0.0000000000000000e+00 0.0000000000000000e+00 0
0.0000000000000000e+00 0.0000000000000000e+00 0
0.0000000000000000e+00 0.0000000000000000e+00 0
0.0000000000000000e+00 0.0000000000000000e+00 0
0.0000000000000000e+00 0.0000000000000000e+00 0
0.0000000000000000e+00 0.0000000000000000e+00 0
0.0000000000000000e+00 0.0000000000000000e+00 0
0.0000000000000000e+00 0.0000000000000000e+00 0
0.0000000000000000e+00 0.0000000000000000e+00 0

VECTORS Displacement float
0.0000000000000000e+00 0.0000000000000000e+00 0
3.1843660066653333e-03 4.0217967896087198e-03 0
1.3185954779950477e-03 2.0762076751066399e-03 0
0.0000000000000000e+00 0.0000000000000000e+00 0
3.1605436592686848e-03 -4.3157900462728101e-03 0
1.2959121279374599e-03 -2.1995186042953543e-03 0
1.0285013983929708e-02 7.7818590983602552e-03 0
6.1924083829354801e-03 5.9311702617988226e-03 0
1.0436071050172427e-02 -8.2688628185107246e-03 0
6.2667825782216748e-03 -6.3633746066836441e-03 0
2.1484098920640030e-02 1.1066432273059035e-02 0
1.5435233204140163e-02 9.5094443875720358e-03 0
2.1511966118822376e-02 -1.1685089217475502e-02 0
1.5534962622119487e-02 -1.0029254276696348e-02 0
3.5953830057238012e-02 1.3792174469740650e-02 0
2.8340879730319055e-02 1.2458161885177503e-02 0
3.6123745271355145e-02 -1.4700192812509555e-02 0
2.8420755912450982e-02 -1.3235403416887261e-02 0
5.3506486980227669e-02 1.6257338012836041e-02 0
4.4344719476835937e-02 1.5074428723570631e-02 0
5.3549089976332252e-02 -1.7429195714422654e-02 0
4.4480754748243312e-02 -1.6091217712136272e-02 0
7.3627968440373226e-02 1.8334637482126458e-02 0
6.3271460425608744e-02 1.7317793019465469e-02 0
7.3803924176008506e-02 -1.9782163115608667e-02 0
6.3351228327195502e-02 -1.8657650118862869e-02 0
9.6137692606788311e-02 2.0196684233146116e-02 0
8.4628570890083271e-02 1.9293654016213906e-02 0
9.6227528194837014e-02 -2.1737245742045018e-02 0
8.4808206695656890e-02 -2.0784596860636356e-02 0
1.2056796731340937e-01 2.1961108921798013e-02 0
1.0810143913030999e-01 2.1074109980381582e-02 0
1.2068320294963375e-01 -2.3658380090952134e-02 0
1.0814675135278830e-01 -2.2703092078333070e-02 0
1.4722377358252708e-01 2.3699031825671787e-02 0
1.3358802175034029e-01 2.2867952809557210e-02 0
1.4727906432017465e-01 -2.5452603635077009e-02 0
1.3372951978188941e-01 -2.4583422330918370e-02 0
1.7566937151767809e-01 2.4885375723558031e-02 0
1.6132173716135617e-01 2.4350225629969476e-02 0
1.7571181314627637e-01 -2.6859236602733552e-02 0
1.6130994392287540e-01 -2.6215580851989453e-02 0
2.0522199067012961e-01 2.5767599829946884e-02 0
1.9028890013968203e-01 2.5367552847296360e-02 0
2.0533492279698320e-01 -2.7671162952313231e-02 0
1.9042087448902856e-01 -2.7337123611834595e-02 0
2.3543226924363744e-01 2.6094986733087491e-02 0
2.2032175275438093e-01 2.5994469870368776e-02 0
2.3546602012601647e-01 -2.8044009472422693e-02 0
2.2035565052206180e-01 -2.7895087244631321e-02 0
2.6556818432922957e-01 2.6190795302206825e-02 0
2.5048873527493359e-01 2.6140865978932021e-02 0
2.6566116964051262e-01 -2.8227594471541641e-02 0
2.5059098830632021e-01 -2.8132422607654525e-02 0
2.9593238749513262e-01 2.6292134700877809e-02 0
2.8073969380902891e-01 2.6241237274659483e-02 0
2.9590873509688342e-01 -2.8519376776020365e-02 0
2.8073986443900767e-01 -2.8366012817610295e-02 0
3.2652820545186512e-01 2.6377920097939447e-02 0
3.1118967028812156e-01 2.6355445558030079e-02 0
3.2661038068846188e-01 -2.8586345850760281e-02 0
3.1124009201909336e-01 -2.8607007898552170e-02 0
3.5706509084213933e-01 2.6235635059039218e-02 0
3.4183772913366683e-01 2.6326493963264426e-02 0
3.5703947371309996e-01 -2.8398763941343177e-02 0
3.4187009811037550e-01 -2.8491198607555709e-02 0
3.8726793092407819e-01 2.6039570847834204e-02 0
3.7220772192551610e-01 2.6130195931356189e-02 0
3.8721845239673036e-01 -2.8286421011762528e-02 0
3.7215591583427809e-01 -2.8328133564341659e-02 0
4.1738722835107234e-01 2.6018451873091208e-02 0
4.1734728937161736e-01 7.9347035105709687e-03 0
4.0230844998309123e-01 2.6014056113109630e-02 0
4.1737033436280196e-01 1.6974811230536010e-02 0
4.1733123318757576e-01 -1.0192666388484109e-02 0
4.1733473679669841e-01 -1.1224102953883957e-03 0
4.1733599327522120e-01 -2.8310750609253581e-02 0
4.0226312451443458e-01 -2.8292032702903480e-02 0
4.1733317576331053e-01 -1.9255424636922869e-02 0

VECTORS Stress float
2.1998802808964172e+02 -1.1745367589052989e+01 0
2.2079562249224591e+02 -1.8259750988389442e+01 0
2.2101410775481827e+02 -1.2570552845415705e+01 0
-9.0793446122323985e+01 9.9957844772681028e+00 0
-9.4171681603107800e+01 8.4824393912358573e+00 0
-9.3678945393890331e+01 6.7030281624847703e+00 0
2.1898946265548796e+02 -3.4101610447071835e+01 0
2.2002907828833486e+02 -2.6278620263251469e+01 0
-9.2750414478336552e+01 1.6672187875121381e+01 0
-9.3510751142865388e+01 1.2705195952048598e+01 0
2.1606311939215266e+02 -4.7555061198972908e+01 0
2.1759370073431660e+02 -4.1123553641836224e+01 0
-9.1754260258103614e+01 2.2568469451482542e+01 0
-9.2156512060061686e+01 1.9787004879362939e+01 0
2.1185447149582228e+02 -5.8330177678677046e+01 0
2.1403618011147478e+02 -5.3171629454173399e+01 0
-9.0644299116102957e+01 2.7525853722256215e+01 0
-9.1138534811349700e+01 2.5070073196702197e+01 0
2.0654644846122574e+02 -6.7174887204805600e+01 0
2.0933003367333049e+02 -6.2957692772114115e+01 0
-8.9591549178709329e+01 3.1923969309174026e+01 0
-9.0107598417079771e+01 2.9789488381082720e+01 0
2.0049563572364536e+02 -7.4223792197845796e+01 0
2.0363994878559856e+02 -7.1013410474492048e+01 0
-8.8782096113188800e+01 3.5401740747537588e+01 0
-8.9198076740607348e+01 3.3887599456664248e+01 0
1.9420589395926595e+02 -7.9298571636927591e+01 0
1.9736678765104398e+02 -7.7125557438692340e+01 0
-8.8030405085520670e+01 3.8443937355677917e+01 0
-8.8463619701575226e+01 3.6971234384842319e+01 0
1.8758938780777726e+02 -8.3231727357345335e+01 0
1.9102068250335924e+02 -8.1215618530630309e+01 0
-8.7169765825721697e+01 4.1482258837811059e+01 0
-8.7603621814797407e+01 3.9990965246406631e+01 0
1.8023767577411468e+02 -8.7299802556668965e+01 0
1.8385831788925952e+02 -8.5358785188740057e+01 0
-8.6263745521064038e+01 4.4139681046578517e+01 0
-8.6684508419775284e+01 4.2818144362101975e+01 0
1.7393528582915405e+02 -8.8810198989101536e+01 0
1.7698539643038907e+02 -8.8191803905556753e+01 0
-8.5566558045758711e+01 4.5729389761893344e+01 0
-8.5890960858407652e+01 4.4955254710721420e+01 0
1.6806585989135624e+02 -8.9288487955007895e+01 0
1.7095636695946314e+02 -8.9150516894983866e+01 0
-8.5072249951230788e+01 4.6288161586960086e+01 0
-8.5300057694094903e+01 4.6129217848099870e+01 0
1.6313042006831449e+02 -8.8020656674986640e+01 0
1.6542101932470382e+02 -8.9069316524174610e+01 0
-8.4597961476771388e+01 4.6159841688614051e+01 0
-8.4844828903388816e+01 4.6385370895849064e+01 0
1.5826630169392683e+02 -8.5595763237580741e+01 0
1.6086349461038503e+02 -8.6870316639603971e+01 0
-8.3924665233795281e+01 4.5905914769258743e+01 0
-8.4333956713095859e+01 4.6063520903230255e+01 0
1.5242584816387352e+02 -8.3032787424704111e+01 0
1.5541696541631393e+02 -8.4367223350488302e+01 0
-8.3052668652656564e+01 4.5909590262617030e+01 0
-8.3496218639306107e+01 4.5855433785637842e+01 0
1.4513354823617163e+02 -7.9710927577408938e+01 0
1.4917220271668992e+02 -8.1463311256122324e+01 0
-8.2127864272589306e+01 4.5329234180892058e+01 0
-8.2578814828620636e+01 4.5885519947457396e+01 0
1.3517471592273137e+02 -7.4458551371486237e+01 0
1.3953615075367890e+02 -7.7126205879791996e+01 0
-8.0922528441374794e+01 4.2487511641756839e+01 0
-8.1494538739134100e+01 4.3104872377085940e+01 0
1.4154190202538436e+02 -7.1203029160424421e+01 0
1.3943917726904505e+02 -7.2790629317658272e+01 0
-8.1863461741604596e+01 5.8077371703879521e+01 0
-8.1160653658650730e+01 5.0859587203277584e+01 0
2.5536644741051759e+01 -4.0930980863340210e+01 0
-2.7156907937684394e+01 -3.6425194337570133e+01 0
1.0705927766111040e+02 -6.0965307848343173e+01 0
-1.5609318607315885e+01 -2.8914335623663192e+01 0
-2.7817838180836617e+01 -6.3114458723305319e+01 0
-2.7614531150162591e+01 -5.0578648809209710e+01 0
-6.4136624474849540e+01 -4.1360382313081473e+01 0
-7.6079613730948836e+01 3.1052896280383429e+01 0
-3.5712565737460267e+01 -6.5357456207193053e+01 0

