# vtk DataFile Version 2.0

ASCII

DATASET UNSTRUCTURED_GRID

POINTS 79 float 

-5.0000000000000003e-02  0.0000000000000000e+00  0.0000000000000000e+00
-5.0000000000000003e-02  5.5555555555555552e-02  0.0000000000000000e+00
-5.0000000000000003e-02  2.7777777777777776e-02  0.0000000000000000e+00
5.0000000000000003e-02  0.0000000000000000e+00  0.0000000000000000e+00
5.0000000000000003e-02  5.5555555555555552e-02  0.0000000000000000e+00
5.0000000000000003e-02  2.7777777777777776e-02  0.0000000000000000e+00
-5.0000000000000003e-02  1.1111111111111110e-01  0.0000000000000000e+00
-5.0000000000000003e-02  8.3333333333333329e-02  0.0000000000000000e+00
5.0000000000000003e-02  1.1111111111111110e-01  0.0000000000000000e+00
5.0000000000000003e-02  8.3333333333333329e-02  0.0000000000000000e+00
-5.0000000000000003e-02  1.6666666666666666e-01  0.0000000000000000e+00
-5.0000000000000003e-02  1.3888888888888890e-01  0.0000000000000000e+00
5.0000000000000003e-02  1.6666666666666666e-01  0.0000000000000000e+00
5.0000000000000003e-02  1.3888888888888890e-01  0.0000000000000000e+00
-5.0000000000000003e-02  2.2222222222222221e-01  0.0000000000000000e+00
-5.0000000000000003e-02  1.9444444444444442e-01  0.0000000000000000e+00
5.0000000000000003e-02  2.2222222222222221e-01  0.0000000000000000e+00
5.0000000000000003e-02  1.9444444444444442e-01  0.0000000000000000e+00
-5.0000000000000003e-02  2.7777777777777779e-01  0.0000000000000000e+00
-5.0000000000000003e-02  2.5000000000000000e-01  0.0000000000000000e+00
5.0000000000000003e-02  2.7777777777777779e-01  0.0000000000000000e+00
5.0000000000000003e-02  2.5000000000000000e-01  0.0000000000000000e+00
-5.0000000000000003e-02  3.3333333333333331e-01  0.0000000000000000e+00
-5.0000000000000003e-02  3.0555555555555558e-01  0.0000000000000000e+00
5.0000000000000003e-02  3.3333333333333331e-01  0.0000000000000000e+00
5.0000000000000003e-02  3.0555555555555558e-01  0.0000000000000000e+00
-5.0000000000000003e-02  3.8888888888888884e-01  0.0000000000000000e+00
-5.0000000000000003e-02  3.6111111111111105e-01  0.0000000000000000e+00
5.0000000000000003e-02  3.8888888888888884e-01  0.0000000000000000e+00
5.0000000000000003e-02  3.6111111111111105e-01  0.0000000000000000e+00
-5.0000000000000003e-02  4.4444444444444442e-01  0.0000000000000000e+00
-5.0000000000000003e-02  4.1666666666666663e-01  0.0000000000000000e+00
5.0000000000000003e-02  4.4444444444444442e-01  0.0000000000000000e+00
5.0000000000000003e-02  4.1666666666666663e-01  0.0000000000000000e+00
-5.0000000000000003e-02  5.0000000000000000e-01  0.0000000000000000e+00
-5.0000000000000003e-02  4.7222222222222221e-01  0.0000000000000000e+00
5.0000000000000003e-02  5.0000000000000000e-01  0.0000000000000000e+00
5.0000000000000003e-02  4.7222222222222221e-01  0.0000000000000000e+00
-5.0000000000000003e-02  5.5555555555555558e-01  0.0000000000000000e+00
-5.0000000000000003e-02  5.2777777777777779e-01  0.0000000000000000e+00
5.0000000000000003e-02  5.5555555555555558e-01  0.0000000000000000e+00
5.0000000000000003e-02  5.2777777777777779e-01  0.0000000000000000e+00
-5.0000000000000003e-02  6.1111111111111105e-01  0.0000000000000000e+00
-5.0000000000000003e-02  5.8333333333333326e-01  0.0000000000000000e+00
5.0000000000000003e-02  6.1111111111111105e-01  0.0000000000000000e+00
5.0000000000000003e-02  5.8333333333333326e-01  0.0000000000000000e+00
-5.0000000000000003e-02  6.6666666666666663e-01  0.0000000000000000e+00
-5.0000000000000003e-02  6.3888888888888884e-01  0.0000000000000000e+00
5.0000000000000003e-02  6.6666666666666663e-01  0.0000000000000000e+00
5.0000000000000003e-02  6.3888888888888884e-01  0.0000000000000000e+00
-5.0000000000000003e-02  7.2222222222222221e-01  0.0000000000000000e+00
-5.0000000000000003e-02  6.9444444444444442e-01  0.0000000000000000e+00
5.0000000000000003e-02  7.2222222222222221e-01  0.0000000000000000e+00
5.0000000000000003e-02  6.9444444444444442e-01  0.0000000000000000e+00
-5.0000000000000003e-02  7.7777777777777768e-01  0.0000000000000000e+00
-5.0000000000000003e-02  7.5000000000000000e-01  0.0000000000000000e+00
5.0000000000000003e-02  7.7777777777777768e-01  0.0000000000000000e+00
5.0000000000000003e-02  7.5000000000000000e-01  0.0000000000000000e+00
-5.0000000000000003e-02  8.3333333333333326e-01  0.0000000000000000e+00
-5.0000000000000003e-02  8.0555555555555547e-01  0.0000000000000000e+00
5.0000000000000003e-02  8.3333333333333326e-01  0.0000000000000000e+00
5.0000000000000003e-02  8.0555555555555547e-01  0.0000000000000000e+00
-5.0000000000000003e-02  8.8888888888888884e-01  0.0000000000000000e+00
-5.0000000000000003e-02  8.6111111111111105e-01  0.0000000000000000e+00
5.0000000000000003e-02  8.8888888888888884e-01  0.0000000000000000e+00
5.0000000000000003e-02  8.6111111111111105e-01  0.0000000000000000e+00
-5.0000000000000003e-02  9.4444444444444442e-01  0.0000000000000000e+00
-5.0000000000000003e-02  9.1666666666666663e-01  0.0000000000000000e+00
5.0000000000000003e-02  9.4444444444444442e-01  0.0000000000000000e+00
5.0000000000000003e-02  9.1666666666666663e-01  0.0000000000000000e+00
-5.0000000000000003e-02  1.0000000000000000e+00  0.0000000000000000e+00
-1.6666666666666670e-02  1.0000000000000000e+00  0.0000000000000000e+00
-5.0000000000000003e-02  9.7222222222222221e-01  0.0000000000000000e+00
-3.3333333333333340e-02  1.0000000000000000e+00  0.0000000000000000e+00
1.6666666666666663e-02  1.0000000000000000e+00  0.0000000000000000e+00
-3.4694469519536142e-18  1.0000000000000000e+00  0.0000000000000000e+00
5.0000000000000003e-02  1.0000000000000000e+00  0.0000000000000000e+00
5.0000000000000003e-02  9.7222222222222221e-01  0.0000000000000000e+00
3.3333333333333333e-02  1.0000000000000000e+00  0.0000000000000000e+00

CELLS 0 0


CELL_TYPES 0


POINT_DATA 79

VECTORS VertexNormals float

0.0000000000000000e+00 0.0000000000000000e+00 0
0.0000000000000000e+00 0.0000000000000000e+00 0
0.0000000000000000e+00 0.0000000000000000e+00 0
0.0000000000000000e+00 0.0000000000000000e+00 0
0.0000000000000000e+00 0.0000000000000000e+00 0
0.0000000000000000e+00 0.0000000000000000e+00 0
0.0000000000000000e+00 0.0000000000000000e+00 0
0.0000000000000000e+00 0.0000000000000000e+00 0
0.0000000000000000e+00 0.0000000000000000e+00 0
0.0000000000000000e+00 0.0000000000000000e+00 0
0.0000000000000000e+00 0.0000000000000000e+00 0
0.0000000000000000e+00 0.0000000000000000e+00 0
0.0000000000000000e+00 0.0000000000000000e+00 0
0.0000000000000000e+00 0.0000000000000000e+00 0
0.0000000000000000e+00 0.0000000000000000e+00 0
0.0000000000000000e+00 0.0000000000000000e+00 0
0.0000000000000000e+00 0.0000000000000000e+00 0
0.0000000000000000e+00 0.0000000000000000e+00 0
0.0000000000000000e+00 0.0000000000000000e+00 0
0.0000000000000000e+00 0.0000000000000000e+00 0
0.0000000000000000e+00 0.0000000000000000e+00 0
0.0000000000000000e+00 0.0000000000000000e+00 0
0.0000000000000000e+00 0.0000000000000000e+00 0
0.0000000000000000e+00 0.0000000000000000e+00 0
0.0000000000000000e+00 0.0000000000000000e+00 0
0.0000000000000000e+00 0.0000000000000000e+00 0
0.0000000000000000e+00 0.0000000000000000e+00 0
0.0000000000000000e+00 0.0000000000000000e+00 0
0.0000000000000000e+00 0.0000000000000000e+00 0
0.0000000000000000e+00 0.0000000000000000e+00 0
0.0000000000000000e+00 0.0000000000000000e+00 0
0.0000000000000000e+00 0.0000000000000000e+00 0
0.0000000000000000e+00 0.0000000000000000e+00 0
0.0000000000000000e+00 0.0000000000000000e+00 0
0.0000000000000000e+00 0.0000000000000000e+00 0
0.0000000000000000e+00 0.0000000000000000e+00 0
0.0000000000000000e+00 0.0000000000000000e+00 0
0.0000000000000000e+00 0.0000000000000000e+00 0
0.0000000000000000e+00 0.0000000000000000e+00 0
0.0000000000000000e+00 0.0000000000000000e+00 0
0.0000000000000000e+00 0.0000000000000000e+00 0
0.0000000000000000e+00 0.0000000000000000e+00 0
0.0000000000000000e+00 0.0000000000000000e+00 0
0.0000000000000000e+00 0.0000000000000000e+00 0
0.0000000000000000e+00 0.0000000000000000e+00 0
0.0000000000000000e+00 0.0000000000000000e+00 0
0.0000000000000000e+00 0.0000000000000000e+00 0
0.0000000000000000e+00 0.0000000000000000e+00 0
0.0000000000000000e+00 0.0000000000000000e+00 0
0.0000000000000000e+00 0.0000000000000000e+00 0
0.0000000000000000e+00 0.0000000000000000e+00 0
0.0000000000000000e+00 0.0000000000000000e+00 0
0.0000000000000000e+00 0.0000000000000000e+00 0
0.0000000000000000e+00 0.0000000000000000e+00 0
0.0000000000000000e+00 0.0000000000000000e+00 0
0.0000000000000000e+00 0.0000000000000000e+00 0
0.0000000000000000e+00 0.0000000000000000e+00 0
0.0000000000000000e+00 0.0000000000000000e+00 0
0.0000000000000000e+00 0.0000000000000000e+00 0
0.0000000000000000e+00 0.0000000000000000e+00 0
0.0000000000000000e+00 0.0000000000000000e+00 0
0.0000000000000000e+00 0.0000000000000000e+00 0
0.0000000000000000e+00 0.0000000000000000e+00 0
0.0000000000000000e+00 0.0000000000000000e+00 0
0.0000000000000000e+00 0.0000000000000000e+00 0
0.0000000000000000e+00 0.0000000000000000e+00 0
0.0000000000000000e+00 0.0000000000000000e+00 0
0.0000000000000000e+00 0.0000000000000000e+00 0
0.0000000000000000e+00 0.0000000000000000e+00 0
0.0000000000000000e+00 0.0000000000000000e+00 0
0.0000000000000000e+00 0.0000000000000000e+00 0
0.0000000000000000e+00 0.0000000000000000e+00 0
0.0000000000000000e+00 0.0000000000000000e+00 0
0.0000000000000000e+00 0.0000000000000000e+00 0
0.0000000000000000e+00 0.0000000000000000e+00 0
0.0000000000000000e+00 0.0000000000000000e+00 0
0.0000000000000000e+00 0.0000000000000000e+00 0
0.0000000000000000e+00 0.0000000000000000e+00 0
0.0000000000000000e+00 0.0000000000000000e+00 0

VECTORS Displacement float
0.0000000000000000e+00 0.0000000000000000e+00 0
8.9995131772019365e-04 8.5137198204583080e-04 0
4.1834104164330927e-04 4.8233694132077457e-04 0
0.0000000000000000e+00 0.0000000000000000e+00 0
9.3895767143075781e-04 -7.8270360892920983e-04 0
4.6954819944495163e-04 -4.6891518346477579e-04 0
2.3699620071443838e-03 1.3790689468060370e-03 0
1.5732253471706285e-03 1.1383742673161540e-03 0
2.3755114231569568e-03 -1.2701062003848695e-03 0
1.5668770393880832e-03 -1.0500877841345369e-03 0
4.1774572978438762e-03 1.5336043642771497e-03 0
3.2907059405499063e-03 1.5111041757449296e-03 0
4.2073747437384283e-03 -1.3345891759009403e-03 0
3.3172515521904247e-03 -1.3567297861495919e-03 0
5.7673570898525862e-03 1.5376715768074881e-03 0
4.9750055896215836e-03 1.5286913995373802e-03 0
5.7853298539742920e-03 -1.2570955217710189e-03 0
4.9997890357679278e-03 -1.2903703597415990e-03 0
7.4643413346040573e-03 1.4266358915792738e-03 0
6.6132108284313656e-03 1.5238266909562259e-03 0
7.4665921600164317e-03 -1.0381884887356370e-03 0
6.6231075232197414e-03 -1.1938044926919384e-03 0
8.6971275251886311e-03 9.1119016065910568e-04 0
8.1969968065124382e-03 1.2023392496395210e-03 0
8.6881602350753831e-03 -3.7996087164835678e-04 0
8.1929825897794385e-03 -7.4644096911120677e-04 0
8.9357179391382543e-03 3.7452244487402116e-04 0
8.9347186425638939e-03 6.1611532729022734e-04 0
8.9222006906089779e-03 3.2324994401237072e-04 0
8.9228673218055676e-03 -3.5211996465980502e-06 0
8.5577291170147902e-03 1.8166169766304613e-04 0
8.7824439497727023e-03 2.3471409587489620e-04 0
8.5464539282105387e-03 6.8876624611498988e-04 0
8.7693742022113171e-03 5.4977475047738851e-04 0
8.1342254380659083e-03 2.7775668544849987e-04 0
8.3266810541476194e-03 2.0862970213663730e-04 0
8.1331959694291491e-03 7.5257199380739451e-04 0
8.3196949831368747e-03 7.4454826121960415e-04 0
7.9012223479537538e-03 4.4582539611833964e-04 0
7.9916490753612259e-03 3.6408474947390555e-04 0
7.9191502512314643e-03 7.1284481611754596e-04 0
7.9992796727760950e-03 7.3541414186781848e-04 0
7.8131862441036537e-03 5.4280345813559349e-04 0
7.8470898308658898e-03 5.0623160616897536e-04 0
7.8554191847127579e-03 7.0022240033932594e-04 0
7.8769550207882112e-03 7.0032078037518314e-04 0
7.7368377545800823e-03 5.4676622548002242e-04 0
7.7814470778272103e-03 5.5289237164817874e-04 0
7.7980615765921189e-03 7.4312390195740454e-04 0
7.8343512618105279e-03 7.1683418560242022e-04 0
7.5985821685802136e-03 5.2561785289607357e-04 0
7.6753372209552844e-03 5.3445159128024831e-04 0
7.6593078222895045e-03 8.0512301490939331e-04 0
7.7388104257608888e-03 7.7407379245062944e-04 0
7.4314549889075363e-03 5.2704640870442293e-04 0
7.5168546866477767e-03 5.2490691887971484e-04 0
7.4717599170685284e-03 8.6973656480743722e-04 0
7.5683397891464430e-03 8.3526202256854298e-04 0
7.2042872274605749e-03 5.3174744386550940e-04 0
7.3300015941758249e-03 5.2696193598453635e-04 0
7.2445646716263971e-03 9.3979320478321379e-04 0
7.3657141880853205e-03 9.0890256646475505e-04 0
6.9540992001640364e-03 5.6354181323618464e-04 0
7.0708822483238802e-03 5.4911995802967733e-04 0
7.0217168878584854e-03 9.5179390797762130e-04 0
7.1245555449711518e-03 9.4836894608519022e-04 0
6.6891507903179357e-03 5.7408959630261976e-04 0
6.8384368146769325e-03 5.6288544198936595e-04 0
6.7525099904199894e-03 1.0314555372790495e-03 0
6.9077719706215016e-03 9.8267146328177369e-04 0
6.3899481696122916e-03 6.3819103781569434e-04 0
6.3986247952586613e-03 7.6211468594227687e-04 0
6.5208366706246898e-03 6.1202054944846374e-04 0
6.3884022535346347e-03 6.9812777013981476e-04 0
6.4454031514791362e-03 9.2480002240962259e-04 0
6.4219135625237077e-03 8.4493027114187320e-04 0
6.4599924709530512e-03 1.0644473332272965e-03 0
6.5921234994745651e-03 1.0589238645776625e-03 0
6.4568167562105844e-03 9.9354631312108168e-04 0

VECTORS Stress float
1.1916762584535024e+02 -4.2894787285954976e+00 0
1.1915359733674723e+02 -2.0220139892592215e+00 0
1.1923862846439465e+02 -2.2311886641492720e+00 0
1.0279857458882509e+02 -4.7391025912176588e+00 0
9.9729361491386953e+01 -1.6095246681929893e+00 0
1.0031998184545591e+02 -2.0515188177184882e+00 0
1.1910602914562196e+02 -3.6012944507974680e+00 0
1.1914160078189707e+02 -2.8853217272690017e+00 0
1.0069033363993867e+02 -3.1175557643614411e+00 0
1.0013663805649958e+02 -2.4187392665421612e+00 0
1.1870536445436574e+02 -3.5640704104089309e+00 0
1.1889348770613606e+02 -3.6582463399263361e+00 0
1.0154081937477349e+02 -3.0551847669917152e+00 0
1.0113572497247742e+02 -3.1744981974952680e+00 0
1.1798719668561716e+02 -3.5034277023005416e+00 0
1.1832728671544919e+02 -3.5293164361478375e+00 0
1.0294657208797980e+02 -3.0374899184171227e+00 0
1.0222534011883454e+02 -3.0518072177628710e+00 0
1.1699037930584291e+02 -3.1125830970759125e+00 0
1.1751953565890017e+02 -3.3910221585938416e+00 0
1.0489233312171564e+02 -2.7511747278003895e+00 0
1.0385016085560983e+02 -2.9688030604866071e+00 0
1.1583756303049813e+02 -1.4947164281147707e+00 0
1.1647911932252282e+02 -2.5205180729362837e+00 0
1.0752259149192469e+02 -1.3504261270281859e+00 0
1.0605202081413336e+02 -2.2309531655109822e+00 0
1.1451244781252808e+02 3.5362279323544499e-01 0
1.1526114876971224e+02 -4.2687816182206006e-01 0
1.1095774057805647e+02 3.3176691226708499e-01 0
1.0907593783569246e+02 -3.8820347394266719e-01 0
1.1285267781018229e+02 1.0338582556923939e+00 0
1.1373751145317965e+02 8.3654580639540654e-01 0
1.1525521911496162e+02 1.0267525954332086e+00 0
1.1299309323067973e+02 8.1332034731622116e-01 0
1.1066901255226821e+02 8.0018338818535995e-01 0
1.1177909801375063e+02 9.7867383927223273e-01 0
1.2052581981070307e+02 8.4023108600649721e-01 0
1.1781948620530602e+02 9.8283023983367457e-01 0
1.0781316879785118e+02 4.4401808435486601e-01 0
1.0927472577566095e+02 6.1296773103458690e-01 0
1.2697885334524017e+02 4.5677384350346983e-01 0
1.2366262536355316e+02 6.2583663362784137e-01 0
1.0427420726074615e+02 3.1036024337163326e-01 0
1.0614310345673766e+02 3.3959915615059799e-01 0
1.3468538821513584e+02 3.0817662358731468e-01 0
1.3067617206637351e+02 3.3839623227640914e-01 0
9.9890361731460871e+01 3.5274102793073325e-01 0
1.0223955090551999e+02 3.2422867588002191e-01 0
1.4343777925775839e+02 4.3309419903971502e-01 0
1.3890021115893796e+02 3.6383736414654777e-01 0
9.4225227670685399e+01 5.6272329022067424e-01 0
9.7244886249739466e+01 4.3954481980199489e-01 0
1.5241390197298870e+02 7.4774852688324245e-01 0
1.4796248123854048e+02 6.1001236367246747e-01 0
8.6583863895156810e+01 2.3021977241796776e-01 0
9.0675867598994046e+01 6.4363067824933751e-01 0
1.6055887194046500e+02 6.1889444013741013e-01 0
1.5663966793393547e+02 8.7688992590346970e-01 0
7.5733222551044491e+01 6.4389123697947070e-01 0
8.1755237097784175e+01 -4.0968107865296588e-01 0
1.6551814527149827e+02 1.0102592625264606e+00 0
1.6385656096624075e+02 1.5873608114088711e-01 0
5.9336581227755232e+01 5.6511860969580994e+00 0
6.8500504570055682e+01 5.4432040053848141e+00 0
1.6353496584421424e+02 4.5542425254481032e+00 0
1.6408234631723622e+02 4.4240019050004094e+00 0
3.0613029763392660e+01 -3.9660770102378820e+01 0
4.7487277875245013e+01 -1.9564453977794869e+01 0
1.8075817672791612e+02 -2.6275327326386559e+01 0
1.7388891749558798e+02 -1.3173153716469415e+01 0
-1.2205601178847019e+01 2.2392526162140348e+02 0
1.3462160379421562e+00 2.5141669026254249e+02 0
1.0160294929821248e+01 3.0594489814809094e+01 0
-6.3955663177830502e-01 2.5657817522212622e+02 0
-5.1857286667932385e+00 2.0796780493873365e+02 0
-9.1883742619904751e-01 2.3134078786140628e+02 0
3.0820293136283624e+01 1.4914517475312292e+02 0
1.3892076075158019e+02 2.0056368915981238e+01 0
-6.8339712043581358e-01 1.8148112495745113e+02 0

