# vtk DataFile Version 2.0

ASCII

DATASET UNSTRUCTURED_GRID

POINTS 79 float 

-5.0000000000000003e-02  0.0000000000000000e+00  0.0000000000000000e+00
-5.0000000000000003e-02  5.5555555555555552e-02  0.0000000000000000e+00
-5.0000000000000003e-02  2.7777777777777776e-02  0.0000000000000000e+00
5.0000000000000003e-02  0.0000000000000000e+00  0.0000000000000000e+00
5.0000000000000003e-02  5.5555555555555552e-02  0.0000000000000000e+00
5.0000000000000003e-02  2.7777777777777776e-02  0.0000000000000000e+00
-5.0000000000000003e-02  1.1111111111111110e-01  0.0000000000000000e+00
-5.0000000000000003e-02  8.3333333333333329e-02  0.0000000000000000e+00
5.0000000000000003e-02  1.1111111111111110e-01  0.0000000000000000e+00
5.0000000000000003e-02  8.3333333333333329e-02  0.0000000000000000e+00
-5.0000000000000003e-02  1.6666666666666666e-01  0.0000000000000000e+00
-5.0000000000000003e-02  1.3888888888888890e-01  0.0000000000000000e+00
5.0000000000000003e-02  1.6666666666666666e-01  0.0000000000000000e+00
5.0000000000000003e-02  1.3888888888888890e-01  0.0000000000000000e+00
-5.0000000000000003e-02  2.2222222222222221e-01  0.0000000000000000e+00
-5.0000000000000003e-02  1.9444444444444442e-01  0.0000000000000000e+00
5.0000000000000003e-02  2.2222222222222221e-01  0.0000000000000000e+00
5.0000000000000003e-02  1.9444444444444442e-01  0.0000000000000000e+00
-5.0000000000000003e-02  2.7777777777777779e-01  0.0000000000000000e+00
-5.0000000000000003e-02  2.5000000000000000e-01  0.0000000000000000e+00
5.0000000000000003e-02  2.7777777777777779e-01  0.0000000000000000e+00
5.0000000000000003e-02  2.5000000000000000e-01  0.0000000000000000e+00
-5.0000000000000003e-02  3.3333333333333331e-01  0.0000000000000000e+00
-5.0000000000000003e-02  3.0555555555555558e-01  0.0000000000000000e+00
5.0000000000000003e-02  3.3333333333333331e-01  0.0000000000000000e+00
5.0000000000000003e-02  3.0555555555555558e-01  0.0000000000000000e+00
-5.0000000000000003e-02  3.8888888888888884e-01  0.0000000000000000e+00
-5.0000000000000003e-02  3.6111111111111105e-01  0.0000000000000000e+00
5.0000000000000003e-02  3.8888888888888884e-01  0.0000000000000000e+00
5.0000000000000003e-02  3.6111111111111105e-01  0.0000000000000000e+00
-5.0000000000000003e-02  4.4444444444444442e-01  0.0000000000000000e+00
-5.0000000000000003e-02  4.1666666666666663e-01  0.0000000000000000e+00
5.0000000000000003e-02  4.4444444444444442e-01  0.0000000000000000e+00
5.0000000000000003e-02  4.1666666666666663e-01  0.0000000000000000e+00
-5.0000000000000003e-02  5.0000000000000000e-01  0.0000000000000000e+00
-5.0000000000000003e-02  4.7222222222222221e-01  0.0000000000000000e+00
5.0000000000000003e-02  5.0000000000000000e-01  0.0000000000000000e+00
5.0000000000000003e-02  4.7222222222222221e-01  0.0000000000000000e+00
-5.0000000000000003e-02  5.5555555555555558e-01  0.0000000000000000e+00
-5.0000000000000003e-02  5.2777777777777779e-01  0.0000000000000000e+00
5.0000000000000003e-02  5.5555555555555558e-01  0.0000000000000000e+00
5.0000000000000003e-02  5.2777777777777779e-01  0.0000000000000000e+00
-5.0000000000000003e-02  6.1111111111111105e-01  0.0000000000000000e+00
-5.0000000000000003e-02  5.8333333333333326e-01  0.0000000000000000e+00
5.0000000000000003e-02  6.1111111111111105e-01  0.0000000000000000e+00
5.0000000000000003e-02  5.8333333333333326e-01  0.0000000000000000e+00
-5.0000000000000003e-02  6.6666666666666663e-01  0.0000000000000000e+00
-5.0000000000000003e-02  6.3888888888888884e-01  0.0000000000000000e+00
5.0000000000000003e-02  6.6666666666666663e-01  0.0000000000000000e+00
5.0000000000000003e-02  6.3888888888888884e-01  0.0000000000000000e+00
-5.0000000000000003e-02  7.2222222222222221e-01  0.0000000000000000e+00
-5.0000000000000003e-02  6.9444444444444442e-01  0.0000000000000000e+00
5.0000000000000003e-02  7.2222222222222221e-01  0.0000000000000000e+00
5.0000000000000003e-02  6.9444444444444442e-01  0.0000000000000000e+00
-5.0000000000000003e-02  7.7777777777777768e-01  0.0000000000000000e+00
-5.0000000000000003e-02  7.5000000000000000e-01  0.0000000000000000e+00
5.0000000000000003e-02  7.7777777777777768e-01  0.0000000000000000e+00
5.0000000000000003e-02  7.5000000000000000e-01  0.0000000000000000e+00
-5.0000000000000003e-02  8.3333333333333326e-01  0.0000000000000000e+00
-5.0000000000000003e-02  8.0555555555555547e-01  0.0000000000000000e+00
5.0000000000000003e-02  8.3333333333333326e-01  0.0000000000000000e+00
5.0000000000000003e-02  8.0555555555555547e-01  0.0000000000000000e+00
-5.0000000000000003e-02  8.8888888888888884e-01  0.0000000000000000e+00
-5.0000000000000003e-02  8.6111111111111105e-01  0.0000000000000000e+00
5.0000000000000003e-02  8.8888888888888884e-01  0.0000000000000000e+00
5.0000000000000003e-02  8.6111111111111105e-01  0.0000000000000000e+00
-5.0000000000000003e-02  9.4444444444444442e-01  0.0000000000000000e+00
-5.0000000000000003e-02  9.1666666666666663e-01  0.0000000000000000e+00
5.0000000000000003e-02  9.4444444444444442e-01  0.0000000000000000e+00
5.0000000000000003e-02  9.1666666666666663e-01  0.0000000000000000e+00
-5.0000000000000003e-02  1.0000000000000000e+00  0.0000000000000000e+00
-1.6666666666666670e-02  1.0000000000000000e+00  0.0000000000000000e+00
-5.0000000000000003e-02  9.7222222222222221e-01  0.0000000000000000e+00
-3.3333333333333340e-02  1.0000000000000000e+00  0.0000000000000000e+00
1.6666666666666663e-02  1.0000000000000000e+00  0.0000000000000000e+00
-3.4694469519536142e-18  1.0000000000000000e+00  0.0000000000000000e+00
5.0000000000000003e-02  1.0000000000000000e+00  0.0000000000000000e+00
5.0000000000000003e-02  9.7222222222222221e-01  0.0000000000000000e+00
3.3333333333333333e-02  1.0000000000000000e+00  0.0000000000000000e+00

CELLS 0 0


CELL_TYPES 0


POINT_DATA 79

VECTORS VertexNormals float

0.0000000000000000e+00 0.0000000000000000e+00 0
0.0000000000000000e+00 0.0000000000000000e+00 0
0.0000000000000000e+00 0.0000000000000000e+00 0
0.0000000000000000e+00 0.0000000000000000e+00 0
0.0000000000000000e+00 0.0000000000000000e+00 0
0.0000000000000000e+00 0.0000000000000000e+00 0
0.0000000000000000e+00 0.0000000000000000e+00 0
0.0000000000000000e+00 0.0000000000000000e+00 0
0.0000000000000000e+00 0.0000000000000000e+00 0
0.0000000000000000e+00 0.0000000000000000e+00 0
0.0000000000000000e+00 0.0000000000000000e+00 0
0.0000000000000000e+00 0.0000000000000000e+00 0
0.0000000000000000e+00 0.0000000000000000e+00 0
0.0000000000000000e+00 0.0000000000000000e+00 0
0.0000000000000000e+00 0.0000000000000000e+00 0
0.0000000000000000e+00 0.0000000000000000e+00 0
0.0000000000000000e+00 0.0000000000000000e+00 0
0.0000000000000000e+00 0.0000000000000000e+00 0
0.0000000000000000e+00 0.0000000000000000e+00 0
0.0000000000000000e+00 0.0000000000000000e+00 0
0.0000000000000000e+00 0.0000000000000000e+00 0
0.0000000000000000e+00 0.0000000000000000e+00 0
0.0000000000000000e+00 0.0000000000000000e+00 0
0.0000000000000000e+00 0.0000000000000000e+00 0
0.0000000000000000e+00 0.0000000000000000e+00 0
0.0000000000000000e+00 0.0000000000000000e+00 0
0.0000000000000000e+00 0.0000000000000000e+00 0
0.0000000000000000e+00 0.0000000000000000e+00 0
0.0000000000000000e+00 0.0000000000000000e+00 0
0.0000000000000000e+00 0.0000000000000000e+00 0
0.0000000000000000e+00 0.0000000000000000e+00 0
0.0000000000000000e+00 0.0000000000000000e+00 0
0.0000000000000000e+00 0.0000000000000000e+00 0
0.0000000000000000e+00 0.0000000000000000e+00 0
0.0000000000000000e+00 0.0000000000000000e+00 0
0.0000000000000000e+00 0.0000000000000000e+00 0
0.0000000000000000e+00 0.0000000000000000e+00 0
0.0000000000000000e+00 0.0000000000000000e+00 0
0.0000000000000000e+00 0.0000000000000000e+00 0
0.0000000000000000e+00 0.0000000000000000e+00 0
0.0000000000000000e+00 0.0000000000000000e+00 0
0.0000000000000000e+00 0.0000000000000000e+00 0
0.0000000000000000e+00 0.0000000000000000e+00 0
0.0000000000000000e+00 0.0000000000000000e+00 0
0.0000000000000000e+00 0.0000000000000000e+00 0
0.0000000000000000e+00 0.0000000000000000e+00 0
0.0000000000000000e+00 0.0000000000000000e+00 0
0.0000000000000000e+00 0.0000000000000000e+00 0
0.0000000000000000e+00 0.0000000000000000e+00 0
0.0000000000000000e+00 0.0000000000000000e+00 0
0.0000000000000000e+00 0.0000000000000000e+00 0
0.0000000000000000e+00 0.0000000000000000e+00 0
0.0000000000000000e+00 0.0000000000000000e+00 0
0.0000000000000000e+00 0.0000000000000000e+00 0
0.0000000000000000e+00 0.0000000000000000e+00 0
0.0000000000000000e+00 0.0000000000000000e+00 0
0.0000000000000000e+00 0.0000000000000000e+00 0
0.0000000000000000e+00 0.0000000000000000e+00 0
0.0000000000000000e+00 0.0000000000000000e+00 0
0.0000000000000000e+00 0.0000000000000000e+00 0
0.0000000000000000e+00 0.0000000000000000e+00 0
0.0000000000000000e+00 0.0000000000000000e+00 0
0.0000000000000000e+00 0.0000000000000000e+00 0
0.0000000000000000e+00 0.0000000000000000e+00 0
0.0000000000000000e+00 0.0000000000000000e+00 0
0.0000000000000000e+00 0.0000000000000000e+00 0
0.0000000000000000e+00 0.0000000000000000e+00 0
0.0000000000000000e+00 0.0000000000000000e+00 0
0.0000000000000000e+00 0.0000000000000000e+00 0
0.0000000000000000e+00 0.0000000000000000e+00 0
0.0000000000000000e+00 0.0000000000000000e+00 0
0.0000000000000000e+00 0.0000000000000000e+00 0
0.0000000000000000e+00 0.0000000000000000e+00 0
0.0000000000000000e+00 0.0000000000000000e+00 0
0.0000000000000000e+00 0.0000000000000000e+00 0
0.0000000000000000e+00 0.0000000000000000e+00 0
0.0000000000000000e+00 0.0000000000000000e+00 0
0.0000000000000000e+00 0.0000000000000000e+00 0
0.0000000000000000e+00 0.0000000000000000e+00 0

VECTORS Displacement float
0.0000000000000000e+00 0.0000000000000000e+00 0
1.6565746406941662e-03 2.0467315267084416e-03 0
6.9048257320069412e-04 1.0528420293716377e-03 0
0.0000000000000000e+00 0.0000000000000000e+00 0
1.7837979115667142e-03 -2.2048239996075129e-03 0
7.6931178267928614e-04 -1.1565984721606693e-03 0
5.1996997412205185e-03 3.9670659827538077e-03 0
3.1611110729809341e-03 3.0210872144040756e-03 0
5.2645172656611595e-03 -4.2295455994311153e-03 0
3.2648288243313636e-03 -3.2134678847806492e-03 0
1.0971954796763375e-02 5.7316316866514484e-03 0
7.8225288504574012e-03 4.8790465370403876e-03 0
1.1109261985237109e-02 -6.2372960483537410e-03 0
7.9132593218414690e-03 -5.2600076329274402e-03 0
1.8751449671367104e-02 7.1674000942890011e-03 0
1.4631570687698305e-02 6.4964038345794901e-03 0
1.8822292243827997e-02 -7.9157438079079413e-03 0
1.4758296616981050e-02 -7.1219905357801129e-03 0
2.7931385311341445e-02 8.3803723526326493e-03 0
2.3194059722947854e-02 7.7712596520314791e-03 0
2.8047147187546896e-02 -9.3597550494658593e-03 0
2.3258658821629211e-02 -8.6472817918424594e-03 0
3.8631219472807510e-02 9.6079668858358586e-03 0
3.3080798807214193e-02 9.0057431245830211e-03 0
3.8712292218798308e-02 -1.0742654922146226e-02 0
3.3209866565968749e-02 -1.0052907661978052e-02 0
5.0790411144029629e-02 1.0639344465322168e-02 0
4.4574705450069321e-02 1.0144450573604982e-02 0
5.0921932735379150e-02 -1.1965998771052370e-02 0
4.4642487175973689e-02 -1.1396856101399518e-02 0
6.3980833821123018e-02 1.1633974973618851e-02 0
5.7230467650989186e-02 1.1138622318432533e-02 0
6.4013564182946570e-02 -1.3013055615086984e-02 0
5.7371428032585971e-02 -1.2474976851651050e-02 0
7.8306159174828333e-02 1.2640060626441345e-02 0
7.1005397683824203e-02 1.2126529201580402e-02 0
7.8397599313618310e-02 -1.4203159939706790e-02 0
7.1000488159967595e-02 -1.3616931741292941e-02 0
9.3953487241253714e-02 1.3548369128387829e-02 0
8.5951962785199190e-02 1.3141870475695362e-02 0
9.4023445849400838e-02 -1.5093978537333876e-02 0
8.6101107897643137e-02 -1.4694845959371238e-02 0
1.1038215633219503e-01 1.3914537762815777e-02 0
1.0215788240545801e-01 1.3783208914223920e-02 0
1.1040977934385159e-01 -1.5607314879091977e-02 0
1.0212324492722757e-01 -1.5398254524997242e-02 0
1.2697903049406731e-01 1.4023965016784344e-02 0
1.1863801614988934e-01 1.4004279362693602e-02 0
1.2707614231844877e-01 -1.5610694945687833e-02 0
1.1879164118321933e-01 -1.5662851645470776e-02 0
1.4341709719263057e-01 1.3773350856401044e-02 0
1.3528225048857567e-01 1.3916038625805663e-02 0
1.4341619815344514e-01 -1.5404622582236701e-02 0
1.3526774836975336e-01 -1.5517354421729150e-02 0
1.5947351839763754e-01 1.3673219913454592e-02 0
1.5142899932208781e-01 1.3701961310227226e-02 0
1.5953566057418844e-01 -1.5252813087142665e-02 0
1.5149198734713784e-01 -1.5311320964042637e-02 0
1.7552590717666139e-01 1.3511697134610531e-02 0
1.6756462886109755e-01 1.3602707606685407e-02 0
1.7553192995408648e-01 -1.5123360012964635e-02 0
1.6756712275907232e-01 -1.5185906806831986e-02 0
1.9129598611691750e-01 1.3487896582616836e-02 0
1.8339967545199326e-01 1.3483992817579364e-02 0
1.9140220408107134e-01 -1.5003262678732469e-02 0
1.8347554600350535e-01 -1.5073016920876696e-02 0
2.0707865407678888e-01 1.3509207999824271e-02 0
1.9919624829588045e-01 1.3489973335490502e-02 0
2.0707718615971482e-01 -1.4904028765967723e-02 0
1.9924525022925660e-01 -1.4936928908583343e-02 0
2.2288097374401328e-01 1.3576827450345615e-02 0
2.2287574733286361e-01 4.0664769307446622e-03 0
2.1496744745657601e-01 1.3548374810431859e-02 0
2.2287707762473113e-01 8.8223852582438016e-03 0
2.2287903656942498e-01 -5.4487646341035128e-03 0
2.2287773607176581e-01 -6.9748412818247067e-04 0
2.2288260284789435e-01 -1.4912962238603739e-02 0
2.1497272590246855e-01 -1.4909123712984931e-02 0
2.2288092998367620e-01 -1.0177920653930455e-02 0

VECTORS Stress float
1.4158004472199235e+02 -4.3248344907411358e+00 0
1.4263085235792087e+02 -6.0854730332603708e+00 0
1.4244100383225179e+02 -4.3653654537800435e+00 0
-8.8854406821119909e+00 7.6624967327228077e-01 0
-1.1159219831206286e+01 5.3035404619649285e-01 0
-1.0635029442197336e+01 4.3393094214775374e-01 0
1.4245004121710983e+02 -1.1579398599632441e+01 0
1.4256579905325816e+02 -8.7449237781179079e+00 0
-1.0970802589539772e+01 9.6429472036385278e-01 0
-1.1097557496709101e+01 7.5978981250125344e-01 0
1.4206752392283141e+02 -1.6885117351173790e+01 0
1.4225946617184081e+02 -1.4319176503197411e+01 0
-1.0887683926588238e+01 1.4185008362878193e+00 0
-1.0898861759874279e+01 1.1998292892198492e+00 0
1.4107221606634198e+02 -2.1045739974121489e+01 0
1.4159211635635143e+02 -1.9067346439578728e+01 0
-1.0408788634417988e+01 1.6774417688117182e+00 0
-1.0641126628723839e+01 1.5415360432014040e+00 0
1.3939044959058390e+02 -2.4362687067298225e+01 0
1.4032302934681354e+02 -2.2781844973221496e+01 0
-9.5338685045362013e+00 1.8070721966779502e+00 0
-1.0016230695022273e+01 1.7571791032876263e+00 0
1.3684895657337972e+02 -2.7444547158120713e+01 0
1.3830193340251543e+02 -2.5919885434768958e+01 0
-8.3387393523022411e+00 1.8163436883360191e+00 0
-9.0338461580840885e+00 1.8506543562585875e+00 0
1.3357382822833370e+02 -2.9868606689550120e+01 0
1.3532815511103399e+02 -2.8873920570805581e+01 0
-6.8266763064522138e+00 1.6724839159759313e+00 0
-7.6796920631628609e+00 1.8118341103863713e+00 0
1.2966588576693414e+02 -3.1387473586509941e+01 0
1.3171596302881068e+02 -3.0654145089082476e+01 0
-5.0332625157436723e+00 1.3744876448733976e+00 0
-5.9506202420819250e+00 1.5289257236104277e+00 0
1.2492485327857383e+02 -3.2862280679949663e+01 0
1.2735042486533308e+02 -3.2106399990192699e+01 0
-3.0368308722590314e+00 9.8014842673762814e-01 0
-4.0232784721230246e+00 1.1702426071555010e+00 0
1.1946088940205567e+02 -3.4097316171279203e+01 0
1.2220417307896878e+02 -3.3542309574993965e+01 0
-6.7236565565070805e-01 3.3579568789957648e-01 0
-1.8703632218957296e+00 6.3534626490445589e-01 0
1.1418749086822109e+02 -3.3646882722892769e+01 0
1.1678732819692436e+02 -3.4105930006659833e+01 0
2.0629733013806231e+00 -4.9553200484126592e-01 0
6.4441725296018149e-01 -6.4663878158171428e-02 0
1.0891551674434609e+02 -3.2144829675499693e+01 0
1.1159907237188008e+02 -3.2995924450975451e+01 0
5.1217244915544597e+00 -1.3697069531551165e+00 0
3.5409230623699841e+00 -8.8361345067755792e-01 0
1.0308833923392764e+02 -3.0047001902230591e+01 0
1.0611684657036304e+02 -3.1198660603927806e+01 0
8.1050719993135658e+00 -2.1724134543271703e+00 0
6.6525141244705992e+00 -1.7619164289436640e+00 0
9.6096165303987505e+01 -2.7621966809513196e+01 0
9.9778376131318410e+01 -2.8802553910756274e+01 0
1.0657662184490192e+01 -2.9219057502213559e+00 0
9.4327750693485370e+00 -2.5268010559695995e+00 0
8.7163174987477461e+01 -2.4616265191658243e+01 0
9.1929833459514185e+01 -2.6410151511664367e+01 0
1.2648838079252030e+01 -3.3982219924921537e+00 0
1.1770156708926606e+01 -3.3400926195090790e+00 0
7.5350155226773580e+01 -1.9628119900659243e+01 0
8.1585612406991658e+01 -2.1524558049517225e+01 0
1.3913927829447772e+01 -3.0453898105761681e+00 0
1.3241138278542451e+01 -2.8944239641812146e+00 0
6.0905243333241714e+01 -2.8593488439621808e+01 0
6.8979434231542058e+01 -2.5004367146460964e+01 0
1.7189581423914618e+01 -9.5728074057286818e+00 0
1.5734471653600281e+01 -6.8834572636180411e+00 0
2.8744384177326303e+01 5.7434301887987559e+01 0
1.4940111885710532e+01 5.8465832511289960e+01 0
4.7357691898404660e+01 -4.1623415644324666e+00 0
1.9002301894405566e+01 6.6131056960420622e+01 0
1.1256744411704915e+01 3.6772042767774408e+01 0
1.3109646334692780e+01 4.6065403070730810e+01 0
2.8581173360944589e+00 2.4909675414064630e+01 0
1.3968690902108406e+01 -6.5909751334038447e-01 0
8.2829163032937885e+00 2.9699623734775770e+01 0

