# vtk DataFile Version 2.0

ASCII

DATASET UNSTRUCTURED_GRID

POINTS 79 float 

-5.0000000000000003e-02  0.0000000000000000e+00  0.0000000000000000e+00
-5.0000000000000003e-02  5.5555555555555552e-02  0.0000000000000000e+00
-5.0000000000000003e-02  2.7777777777777776e-02  0.0000000000000000e+00
5.0000000000000003e-02  0.0000000000000000e+00  0.0000000000000000e+00
5.0000000000000003e-02  5.5555555555555552e-02  0.0000000000000000e+00
5.0000000000000003e-02  2.7777777777777776e-02  0.0000000000000000e+00
-5.0000000000000003e-02  1.1111111111111110e-01  0.0000000000000000e+00
-5.0000000000000003e-02  8.3333333333333329e-02  0.0000000000000000e+00
5.0000000000000003e-02  1.1111111111111110e-01  0.0000000000000000e+00
5.0000000000000003e-02  8.3333333333333329e-02  0.0000000000000000e+00
-5.0000000000000003e-02  1.6666666666666666e-01  0.0000000000000000e+00
-5.0000000000000003e-02  1.3888888888888890e-01  0.0000000000000000e+00
5.0000000000000003e-02  1.6666666666666666e-01  0.0000000000000000e+00
5.0000000000000003e-02  1.3888888888888890e-01  0.0000000000000000e+00
-5.0000000000000003e-02  2.2222222222222221e-01  0.0000000000000000e+00
-5.0000000000000003e-02  1.9444444444444442e-01  0.0000000000000000e+00
5.0000000000000003e-02  2.2222222222222221e-01  0.0000000000000000e+00
5.0000000000000003e-02  1.9444444444444442e-01  0.0000000000000000e+00
-5.0000000000000003e-02  2.7777777777777779e-01  0.0000000000000000e+00
-5.0000000000000003e-02  2.5000000000000000e-01  0.0000000000000000e+00
5.0000000000000003e-02  2.7777777777777779e-01  0.0000000000000000e+00
5.0000000000000003e-02  2.5000000000000000e-01  0.0000000000000000e+00
-5.0000000000000003e-02  3.3333333333333331e-01  0.0000000000000000e+00
-5.0000000000000003e-02  3.0555555555555558e-01  0.0000000000000000e+00
5.0000000000000003e-02  3.3333333333333331e-01  0.0000000000000000e+00
5.0000000000000003e-02  3.0555555555555558e-01  0.0000000000000000e+00
-5.0000000000000003e-02  3.8888888888888884e-01  0.0000000000000000e+00
-5.0000000000000003e-02  3.6111111111111105e-01  0.0000000000000000e+00
5.0000000000000003e-02  3.8888888888888884e-01  0.0000000000000000e+00
5.0000000000000003e-02  3.6111111111111105e-01  0.0000000000000000e+00
-5.0000000000000003e-02  4.4444444444444442e-01  0.0000000000000000e+00
-5.0000000000000003e-02  4.1666666666666663e-01  0.0000000000000000e+00
5.0000000000000003e-02  4.4444444444444442e-01  0.0000000000000000e+00
5.0000000000000003e-02  4.1666666666666663e-01  0.0000000000000000e+00
-5.0000000000000003e-02  5.0000000000000000e-01  0.0000000000000000e+00
-5.0000000000000003e-02  4.7222222222222221e-01  0.0000000000000000e+00
5.0000000000000003e-02  5.0000000000000000e-01  0.0000000000000000e+00
5.0000000000000003e-02  4.7222222222222221e-01  0.0000000000000000e+00
-5.0000000000000003e-02  5.5555555555555558e-01  0.0000000000000000e+00
-5.0000000000000003e-02  5.2777777777777779e-01  0.0000000000000000e+00
5.0000000000000003e-02  5.5555555555555558e-01  0.0000000000000000e+00
5.0000000000000003e-02  5.2777777777777779e-01  0.0000000000000000e+00
-5.0000000000000003e-02  6.1111111111111105e-01  0.0000000000000000e+00
-5.0000000000000003e-02  5.8333333333333326e-01  0.0000000000000000e+00
5.0000000000000003e-02  6.1111111111111105e-01  0.0000000000000000e+00
5.0000000000000003e-02  5.8333333333333326e-01  0.0000000000000000e+00
-5.0000000000000003e-02  6.6666666666666663e-01  0.0000000000000000e+00
-5.0000000000000003e-02  6.3888888888888884e-01  0.0000000000000000e+00
5.0000000000000003e-02  6.6666666666666663e-01  0.0000000000000000e+00
5.0000000000000003e-02  6.3888888888888884e-01  0.0000000000000000e+00
-5.0000000000000003e-02  7.2222222222222221e-01  0.0000000000000000e+00
-5.0000000000000003e-02  6.9444444444444442e-01  0.0000000000000000e+00
5.0000000000000003e-02  7.2222222222222221e-01  0.0000000000000000e+00
5.0000000000000003e-02  6.9444444444444442e-01  0.0000000000000000e+00
-5.0000000000000003e-02  7.7777777777777768e-01  0.0000000000000000e+00
-5.0000000000000003e-02  7.5000000000000000e-01  0.0000000000000000e+00
5.0000000000000003e-02  7.7777777777777768e-01  0.0000000000000000e+00
5.0000000000000003e-02  7.5000000000000000e-01  0.0000000000000000e+00
-5.0000000000000003e-02  8.3333333333333326e-01  0.0000000000000000e+00
-5.0000000000000003e-02  8.0555555555555547e-01  0.0000000000000000e+00
5.0000000000000003e-02  8.3333333333333326e-01  0.0000000000000000e+00
5.0000000000000003e-02  8.0555555555555547e-01  0.0000000000000000e+00
-5.0000000000000003e-02  8.8888888888888884e-01  0.0000000000000000e+00
-5.0000000000000003e-02  8.6111111111111105e-01  0.0000000000000000e+00
5.0000000000000003e-02  8.8888888888888884e-01  0.0000000000000000e+00
5.0000000000000003e-02  8.6111111111111105e-01  0.0000000000000000e+00
-5.0000000000000003e-02  9.4444444444444442e-01  0.0000000000000000e+00
-5.0000000000000003e-02  9.1666666666666663e-01  0.0000000000000000e+00
5.0000000000000003e-02  9.4444444444444442e-01  0.0000000000000000e+00
5.0000000000000003e-02  9.1666666666666663e-01  0.0000000000000000e+00
-5.0000000000000003e-02  1.0000000000000000e+00  0.0000000000000000e+00
-1.6666666666666670e-02  1.0000000000000000e+00  0.0000000000000000e+00
-5.0000000000000003e-02  9.7222222222222221e-01  0.0000000000000000e+00
-3.3333333333333340e-02  1.0000000000000000e+00  0.0000000000000000e+00
1.6666666666666663e-02  1.0000000000000000e+00  0.0000000000000000e+00
-3.4694469519536142e-18  1.0000000000000000e+00  0.0000000000000000e+00
5.0000000000000003e-02  1.0000000000000000e+00  0.0000000000000000e+00
5.0000000000000003e-02  9.7222222222222221e-01  0.0000000000000000e+00
3.3333333333333333e-02  1.0000000000000000e+00  0.0000000000000000e+00

CELLS 0 0


CELL_TYPES 0


POINT_DATA 79

VECTORS VertexNormals float

0.0000000000000000e+00 0.0000000000000000e+00 0
0.0000000000000000e+00 0.0000000000000000e+00 0
0.0000000000000000e+00 0.0000000000000000e+00 0
0.0000000000000000e+00 0.0000000000000000e+00 0
0.0000000000000000e+00 0.0000000000000000e+00 0
0.0000000000000000e+00 0.0000000000000000e+00 0
0.0000000000000000e+00 0.0000000000000000e+00 0
0.0000000000000000e+00 0.0000000000000000e+00 0
0.0000000000000000e+00 0.0000000000000000e+00 0
0.0000000000000000e+00 0.0000000000000000e+00 0
0.0000000000000000e+00 0.0000000000000000e+00 0
0.0000000000000000e+00 0.0000000000000000e+00 0
0.0000000000000000e+00 0.0000000000000000e+00 0
0.0000000000000000e+00 0.0000000000000000e+00 0
0.0000000000000000e+00 0.0000000000000000e+00 0
0.0000000000000000e+00 0.0000000000000000e+00 0
0.0000000000000000e+00 0.0000000000000000e+00 0
0.0000000000000000e+00 0.0000000000000000e+00 0
0.0000000000000000e+00 0.0000000000000000e+00 0
0.0000000000000000e+00 0.0000000000000000e+00 0
0.0000000000000000e+00 0.0000000000000000e+00 0
0.0000000000000000e+00 0.0000000000000000e+00 0
0.0000000000000000e+00 0.0000000000000000e+00 0
0.0000000000000000e+00 0.0000000000000000e+00 0
0.0000000000000000e+00 0.0000000000000000e+00 0
0.0000000000000000e+00 0.0000000000000000e+00 0
0.0000000000000000e+00 0.0000000000000000e+00 0
0.0000000000000000e+00 0.0000000000000000e+00 0
0.0000000000000000e+00 0.0000000000000000e+00 0
0.0000000000000000e+00 0.0000000000000000e+00 0
0.0000000000000000e+00 0.0000000000000000e+00 0
0.0000000000000000e+00 0.0000000000000000e+00 0
0.0000000000000000e+00 0.0000000000000000e+00 0
0.0000000000000000e+00 0.0000000000000000e+00 0
0.0000000000000000e+00 0.0000000000000000e+00 0
0.0000000000000000e+00 0.0000000000000000e+00 0
0.0000000000000000e+00 0.0000000000000000e+00 0
0.0000000000000000e+00 0.0000000000000000e+00 0
0.0000000000000000e+00 0.0000000000000000e+00 0
0.0000000000000000e+00 0.0000000000000000e+00 0
0.0000000000000000e+00 0.0000000000000000e+00 0
0.0000000000000000e+00 0.0000000000000000e+00 0
0.0000000000000000e+00 0.0000000000000000e+00 0
0.0000000000000000e+00 0.0000000000000000e+00 0
0.0000000000000000e+00 0.0000000000000000e+00 0
0.0000000000000000e+00 0.0000000000000000e+00 0
0.0000000000000000e+00 0.0000000000000000e+00 0
0.0000000000000000e+00 0.0000000000000000e+00 0
0.0000000000000000e+00 0.0000000000000000e+00 0
0.0000000000000000e+00 0.0000000000000000e+00 0
0.0000000000000000e+00 0.0000000000000000e+00 0
0.0000000000000000e+00 0.0000000000000000e+00 0
0.0000000000000000e+00 0.0000000000000000e+00 0
0.0000000000000000e+00 0.0000000000000000e+00 0
0.0000000000000000e+00 0.0000000000000000e+00 0
0.0000000000000000e+00 0.0000000000000000e+00 0
0.0000000000000000e+00 0.0000000000000000e+00 0
0.0000000000000000e+00 0.0000000000000000e+00 0
0.0000000000000000e+00 0.0000000000000000e+00 0
0.0000000000000000e+00 0.0000000000000000e+00 0
0.0000000000000000e+00 0.0000000000000000e+00 0
0.0000000000000000e+00 0.0000000000000000e+00 0
0.0000000000000000e+00 0.0000000000000000e+00 0
0.0000000000000000e+00 0.0000000000000000e+00 0
0.0000000000000000e+00 0.0000000000000000e+00 0
0.0000000000000000e+00 0.0000000000000000e+00 0
0.0000000000000000e+00 0.0000000000000000e+00 0
0.0000000000000000e+00 0.0000000000000000e+00 0
0.0000000000000000e+00 0.0000000000000000e+00 0
0.0000000000000000e+00 0.0000000000000000e+00 0
0.0000000000000000e+00 0.0000000000000000e+00 0
0.0000000000000000e+00 0.0000000000000000e+00 0
0.0000000000000000e+00 0.0000000000000000e+00 0
0.0000000000000000e+00 0.0000000000000000e+00 0
0.0000000000000000e+00 0.0000000000000000e+00 0
0.0000000000000000e+00 0.0000000000000000e+00 0
0.0000000000000000e+00 0.0000000000000000e+00 0
0.0000000000000000e+00 0.0000000000000000e+00 0
0.0000000000000000e+00 0.0000000000000000e+00 0

VECTORS Displacement float
0.0000000000000000e+00 0.0000000000000000e+00 0
8.3106506354939456e-04 6.8937347412184895e-04 0
3.1213664945827716e-04 4.1837716009623894e-04 0
0.0000000000000000e+00 0.0000000000000000e+00 0
9.5075734347529594e-04 -6.9337095869461123e-04 0
3.8955495362339712e-04 -4.3781068785612315e-04 0
1.9681783304261354e-03 5.8014994612478124e-04 0
1.4716275276991288e-03 7.0658012660816509e-04 0
2.0800921832699170e-03 -5.8243177335934868e-04 0
1.5882562105826897e-03 -7.0584964945165645e-04 0
2.4604152817041254e-03 2.4508578283382324e-04 0
2.2914271969216695e-03 4.0640877304349459e-04 0
2.5693491072040779e-03 -2.4924021586724294e-04 0
2.4014363359695918e-03 -4.1060952876090234e-04 0
2.5476746897354434e-03 5.1868532254290642e-05 0
2.5322498145638143e-03 1.2973568788690311e-04 0
2.6556502070450190e-03 -5.2501147992045740e-05 0
2.6406032678691102e-03 -1.3248148084849396e-04 0
2.5163541062852954e-03 -1.5403632046380584e-05 0
2.5365426021456854e-03 8.3333248252538643e-06 0
2.6240962483307022e-03 1.9866395326764237e-05 0
2.6443738140439483e-03 -6.4968167910083837e-06 0
2.4719915335563235e-03 -3.1453258539862870e-05 0
2.4935332399203566e-03 -2.6501525312309879e-05 0
2.5795740134927233e-03 4.1294765462272291e-05 0
2.6012137069897742e-03 3.3643276759777439e-05 0
2.4314057040608949e-03 -3.4821472344746850e-05 0
2.4512646177976137e-03 -3.3678142370773989e-05 0
2.5385855056674787e-03 5.0264542846053114e-05 0
2.5586838987144353e-03 4.6266048463085684e-05 0
2.3910357287971968e-03 -3.6827342992580605e-05 0
2.4114621636179760e-03 -3.5832762806492259e-05 0
2.4974166844401015e-03 5.8679902555074364e-05 0
2.5182864290931675e-03 5.4326101057877440e-05 0
2.3472363440279090e-03 -3.8884102905109282e-05 0
2.3697084241374989e-03 -3.7898130417457346e-05 0
2.4523139700037581e-03 6.8940309236868060e-05 0
2.4754861990893677e-03 6.3549201938582227e-05 0
2.2984251929425784e-03 -4.0056449742041600e-05 0
2.3235233448839214e-03 -3.9671617742101172e-05 0
2.4015240294967453e-03 8.1594688392654409e-05 0
2.4276858255209820e-03 7.4939515732936224e-05 0
2.2441587110320041e-03 -3.8631032926786145e-05 0
2.2719880554108148e-03 -3.9812119578843339e-05 0
2.3442128899565217e-03 9.7193400841544896e-05 0
2.3736835658804971e-03 8.8990002850956626e-05 0
2.1854255884896498e-03 -3.1787786551015223e-05 0
2.2152187782450436e-03 -3.6081555246480090e-05 0
2.2810070194534842e-03 1.1629356529316726e-04 0
2.3131683738017851e-03 1.0623315159088269e-04 0
2.1261217438604562e-03 -1.6431773657192020e-05 0
2.1555157076515799e-03 -2.5240991851435672e-05 0
2.2153830017438408e-03 1.4088045080451003e-04 0
2.2481286426931342e-03 1.2756256211535742e-04 0
2.0703287155834690e-03 7.0406241253873237e-06 0
2.0977445758943564e-03 -5.4973433034469479e-06 0
2.1493065176384808e-03 1.7919502742622811e-04 0
2.1825012832185336e-03 1.5746987833245441e-04 0
2.0136823740812297e-03 3.3459492916577095e-05 0
2.0431495607017517e-03 2.0231624487723523e-05 0
2.0716592388301375e-03 2.5065948019425591e-04 0
2.1135779476034919e-03 2.0935820861224785e-04 0
1.9159107320099349e-03 5.2478182468416504e-05 0
1.9758214744943982e-03 4.3202932641772138e-05 0
1.9368768756045547e-03 3.7067209634554889e-04 0
2.0153133449480141e-03 3.0621496506904114e-04 0
1.7337358358076949e-03 1.2342653617612441e-04 0
1.8269039304998577e-03 7.3975628472712344e-05 0
1.7422598344829091e-03 4.9662012729838453e-04 0
1.8400094762778202e-03 4.3434929597203724e-04 0
1.6641000843021683e-03 2.7254850423738541e-04 0
1.6167062514511976e-03 2.8730043883723987e-04 0
1.6726617751568458e-03 2.0632680084001239e-04 0
1.6427780120758916e-03 2.5859548736061565e-04 0
1.5763987481538894e-03 4.4215451500641956e-04 0
1.5937083726256511e-03 3.5516917323888625e-04 0
1.5557489204503154e-03 6.1275877650305546e-04 0
1.6610399656328851e-03 5.6569961620226241e-04 0
1.5653476775487269e-03 5.3038465432805101e-04 0

VECTORS Stress float
1.2270615174187446e+02 -6.9654628804686354e+00 0
1.2332762440272791e+02 -1.2285574005964008e+00 0
1.2336257071502450e+02 -2.5441635038537243e+00 0
8.1937071657970591e+01 -7.1787581583248539e+00 0
7.7383629253870822e+01 -4.5086983181818141e-01 0
7.8211558206684003e+01 -2.0301351511629946e+00 0
1.2302171163028106e+02 -2.0241135713713447e+00 0
1.2317632279142890e+02 -1.7280573651632949e+00 0
7.8941428901355721e+01 -1.3483217566727035e+00 0
7.8057350231307282e+01 -9.2063820065141044e-01 0
1.2252207558383270e+02 -5.0803504896339291e-01 0
1.2271771925474786e+02 -1.3076176614304131e+00 0
8.0358050823713711e+01 -3.6043345543566829e-01 0
7.9679036581545006e+01 -9.2006423450493457e-01 0
1.2175100885978827e+02 5.5963604869248229e-02 0
1.2208127435957431e+02 -1.0540969993144245e-01 0
8.2648368511050649e+01 -5.0211091074743308e-03 0
8.1477123975484574e+01 -1.0471424212573766e-01 0
1.2075895513063915e+02 1.7281532575725578e-01 0
1.2128132092742635e+02 1.3384030414090375e-01 0
8.5724533349217381e+01 5.5363405379466712e-02 0
8.4093520433632875e+01 3.2842771124705905e-02 0
1.1956794622763846e+02 1.8921449441040750e-01 0
1.2027234751321157e+02 1.7923974031327816e-01 0
8.9602679588078900e+01 6.0201331109055900e-02 0
8.7470935239180108e+01 6.8726047153177205e-02 0
1.1812869423919255e+02 1.9404830082385160e-01 0
1.1897461905621822e+02 1.8732470862778428e-01 0
9.4415058716509520e+01 6.6090975002225605e-02 0
9.1786243778138669e+01 7.4168846129396115e-02 0
1.1632519712640351e+02 2.1205950763578585e-01 0
1.1728167394365300e+02 2.0326209856102651e-01 0
1.0019965297119052e+02 9.4253783790918533e-02 0
9.7198070020223895e+01 7.9531642282745452e-02 0
1.1403690709097646e+02 2.3926345494328416e-01 0
1.1516047288919435e+02 2.2445839914689714e-01 0
1.0706154783962302e+02 1.3985627562033187e-01 0
1.0353613245886663e+02 9.8325716178806033e-02 0
1.1103740604731865e+02 2.6567882112613006e-01 0
1.1251863514240358e+02 2.4624751010378532e-01 0
1.1600297011410112e+02 1.7747462621628074e-01 0
1.1135293517574792e+02 1.3275613223413529e-01 0
1.0720326201176249e+02 2.9196224916449864e-01 0
1.0922646925876415e+02 2.7582285978041909e-01 0
1.2784125284475431e+02 2.2748151208998024e-01 0
1.2150803486460518e+02 1.9565551190044062e-01 0
1.0231268606538015e+02 2.5792379678387078e-01 0
1.0504376864634378e+02 3.0079553863561159e-01 0
1.4392013565354864e+02 2.4613530648912274e-01 0
1.3508968385078333e+02 2.8021588836872979e-01 0
9.5975834777511409e+01 4.4804484994619997e-01 0
9.9482887640730951e+01 3.1278984016080358e-01 0
1.6555223306833977e+02 4.7521430157576106e-01 0
1.5376152515840931e+02 3.5721753713187354e-01 0
8.7314648709886569e+01 -1.7580055564030772e-01 0
9.1947704799556050e+01 5.5233853773461306e-01 0
1.9277549635526748e+02 5.6087547883635125e-02 0
1.7857246169861855e+02 6.0974925645041367e-01 0
7.4493395303426951e+01 4.1483576262498900e-01 0
8.1611380595864375e+01 -1.3026062771532452e+00 0
2.2022209055122312e+02 7.2709579042066252e-01 0
2.0760586324882570e+02 -8.3418406094006059e-01 0
5.4756012620718138e+01 8.7194368502646284e+00 0
6.6045409927050059e+01 8.2737272166164075e+00 0
2.3699078297553228e+02 7.6606490197430048e+00 0
2.2741961326385308e+02 7.1826402740387039e+00 0
1.4825260605163294e+01 -6.4738015916577751e+01 0
3.8463063382715745e+01 -3.2321320839245118e+01 0
2.9366813607541360e+02 -4.9915173541471972e+01 0
2.6757578731661812e+02 -2.5121338501239279e+01 0
-2.3457293870438662e+01 3.6256870427546210e+02 0
3.5016022384485268e+00 4.3335239856854469e+02 0
-7.6248325636320260e+00 4.8901921643624291e+01 0
2.2931105314046363e-01 4.2390917406812969e+02 0
-9.5100135396841665e+00 3.8542819739186683e+02 0
-1.6069059739328395e+00 4.1765091810508306e+02 0
5.4534192856961909e+01 2.8007465586798492e+02 0
2.3357558901987903e+02 3.7266921028659681e+01 0
-1.5390279274126328e+00 3.4107459653836315e+02 0

