# vtk DataFile Version 2.0

ASCII

DATASET UNSTRUCTURED_GRID

POINTS 79 float 

-5.0000000000000003e-02  0.0000000000000000e+00  0.0000000000000000e+00
-5.0000000000000003e-02  5.5555555555555552e-02  0.0000000000000000e+00
-5.0000000000000003e-02  2.7777777777777776e-02  0.0000000000000000e+00
5.0000000000000003e-02  0.0000000000000000e+00  0.0000000000000000e+00
5.0000000000000003e-02  5.5555555555555552e-02  0.0000000000000000e+00
5.0000000000000003e-02  2.7777777777777776e-02  0.0000000000000000e+00
-5.0000000000000003e-02  1.1111111111111110e-01  0.0000000000000000e+00
-5.0000000000000003e-02  8.3333333333333329e-02  0.0000000000000000e+00
5.0000000000000003e-02  1.1111111111111110e-01  0.0000000000000000e+00
5.0000000000000003e-02  8.3333333333333329e-02  0.0000000000000000e+00
-5.0000000000000003e-02  1.6666666666666666e-01  0.0000000000000000e+00
-5.0000000000000003e-02  1.3888888888888890e-01  0.0000000000000000e+00
5.0000000000000003e-02  1.6666666666666666e-01  0.0000000000000000e+00
5.0000000000000003e-02  1.3888888888888890e-01  0.0000000000000000e+00
-5.0000000000000003e-02  2.2222222222222221e-01  0.0000000000000000e+00
-5.0000000000000003e-02  1.9444444444444442e-01  0.0000000000000000e+00
5.0000000000000003e-02  2.2222222222222221e-01  0.0000000000000000e+00
5.0000000000000003e-02  1.9444444444444442e-01  0.0000000000000000e+00
-5.0000000000000003e-02  2.7777777777777779e-01  0.0000000000000000e+00
-5.0000000000000003e-02  2.5000000000000000e-01  0.0000000000000000e+00
5.0000000000000003e-02  2.7777777777777779e-01  0.0000000000000000e+00
5.0000000000000003e-02  2.5000000000000000e-01  0.0000000000000000e+00
-5.0000000000000003e-02  3.3333333333333331e-01  0.0000000000000000e+00
-5.0000000000000003e-02  3.0555555555555558e-01  0.0000000000000000e+00
5.0000000000000003e-02  3.3333333333333331e-01  0.0000000000000000e+00
5.0000000000000003e-02  3.0555555555555558e-01  0.0000000000000000e+00
-5.0000000000000003e-02  3.8888888888888884e-01  0.0000000000000000e+00
-5.0000000000000003e-02  3.6111111111111105e-01  0.0000000000000000e+00
5.0000000000000003e-02  3.8888888888888884e-01  0.0000000000000000e+00
5.0000000000000003e-02  3.6111111111111105e-01  0.0000000000000000e+00
-5.0000000000000003e-02  4.4444444444444442e-01  0.0000000000000000e+00
-5.0000000000000003e-02  4.1666666666666663e-01  0.0000000000000000e+00
5.0000000000000003e-02  4.4444444444444442e-01  0.0000000000000000e+00
5.0000000000000003e-02  4.1666666666666663e-01  0.0000000000000000e+00
-5.0000000000000003e-02  5.0000000000000000e-01  0.0000000000000000e+00
-5.0000000000000003e-02  4.7222222222222221e-01  0.0000000000000000e+00
5.0000000000000003e-02  5.0000000000000000e-01  0.0000000000000000e+00
5.0000000000000003e-02  4.7222222222222221e-01  0.0000000000000000e+00
-5.0000000000000003e-02  5.5555555555555558e-01  0.0000000000000000e+00
-5.0000000000000003e-02  5.2777777777777779e-01  0.0000000000000000e+00
5.0000000000000003e-02  5.5555555555555558e-01  0.0000000000000000e+00
5.0000000000000003e-02  5.2777777777777779e-01  0.0000000000000000e+00
-5.0000000000000003e-02  6.1111111111111105e-01  0.0000000000000000e+00
-5.0000000000000003e-02  5.8333333333333326e-01  0.0000000000000000e+00
5.0000000000000003e-02  6.1111111111111105e-01  0.0000000000000000e+00
5.0000000000000003e-02  5.8333333333333326e-01  0.0000000000000000e+00
-5.0000000000000003e-02  6.6666666666666663e-01  0.0000000000000000e+00
-5.0000000000000003e-02  6.3888888888888884e-01  0.0000000000000000e+00
5.0000000000000003e-02  6.6666666666666663e-01  0.0000000000000000e+00
5.0000000000000003e-02  6.3888888888888884e-01  0.0000000000000000e+00
-5.0000000000000003e-02  7.2222222222222221e-01  0.0000000000000000e+00
-5.0000000000000003e-02  6.9444444444444442e-01  0.0000000000000000e+00
5.0000000000000003e-02  7.2222222222222221e-01  0.0000000000000000e+00
5.0000000000000003e-02  6.9444444444444442e-01  0.0000000000000000e+00
-5.0000000000000003e-02  7.7777777777777768e-01  0.0000000000000000e+00
-5.0000000000000003e-02  7.5000000000000000e-01  0.0000000000000000e+00
5.0000000000000003e-02  7.7777777777777768e-01  0.0000000000000000e+00
5.0000000000000003e-02  7.5000000000000000e-01  0.0000000000000000e+00
-5.0000000000000003e-02  8.3333333333333326e-01  0.0000000000000000e+00
-5.0000000000000003e-02  8.0555555555555547e-01  0.0000000000000000e+00
5.0000000000000003e-02  8.3333333333333326e-01  0.0000000000000000e+00
5.0000000000000003e-02  8.0555555555555547e-01  0.0000000000000000e+00
-5.0000000000000003e-02  8.8888888888888884e-01  0.0000000000000000e+00
-5.0000000000000003e-02  8.6111111111111105e-01  0.0000000000000000e+00
5.0000000000000003e-02  8.8888888888888884e-01  0.0000000000000000e+00
5.0000000000000003e-02  8.6111111111111105e-01  0.0000000000000000e+00
-5.0000000000000003e-02  9.4444444444444442e-01  0.0000000000000000e+00
-5.0000000000000003e-02  9.1666666666666663e-01  0.0000000000000000e+00
5.0000000000000003e-02  9.4444444444444442e-01  0.0000000000000000e+00
5.0000000000000003e-02  9.1666666666666663e-01  0.0000000000000000e+00
-5.0000000000000003e-02  1.0000000000000000e+00  0.0000000000000000e+00
-1.6666666666666670e-02  1.0000000000000000e+00  0.0000000000000000e+00
-5.0000000000000003e-02  9.7222222222222221e-01  0.0000000000000000e+00
-3.3333333333333340e-02  1.0000000000000000e+00  0.0000000000000000e+00
1.6666666666666663e-02  1.0000000000000000e+00  0.0000000000000000e+00
-3.4694469519536142e-18  1.0000000000000000e+00  0.0000000000000000e+00
5.0000000000000003e-02  1.0000000000000000e+00  0.0000000000000000e+00
5.0000000000000003e-02  9.7222222222222221e-01  0.0000000000000000e+00
3.3333333333333333e-02  1.0000000000000000e+00  0.0000000000000000e+00

CELLS 0 0


CELL_TYPES 0


POINT_DATA 79

VECTORS VertexNormals float

0.0000000000000000e+00 0.0000000000000000e+00 0
0.0000000000000000e+00 0.0000000000000000e+00 0
0.0000000000000000e+00 0.0000000000000000e+00 0
0.0000000000000000e+00 0.0000000000000000e+00 0
0.0000000000000000e+00 0.0000000000000000e+00 0
0.0000000000000000e+00 0.0000000000000000e+00 0
0.0000000000000000e+00 0.0000000000000000e+00 0
0.0000000000000000e+00 0.0000000000000000e+00 0
0.0000000000000000e+00 0.0000000000000000e+00 0
0.0000000000000000e+00 0.0000000000000000e+00 0
0.0000000000000000e+00 0.0000000000000000e+00 0
0.0000000000000000e+00 0.0000000000000000e+00 0
0.0000000000000000e+00 0.0000000000000000e+00 0
0.0000000000000000e+00 0.0000000000000000e+00 0
0.0000000000000000e+00 0.0000000000000000e+00 0
0.0000000000000000e+00 0.0000000000000000e+00 0
0.0000000000000000e+00 0.0000000000000000e+00 0
0.0000000000000000e+00 0.0000000000000000e+00 0
0.0000000000000000e+00 0.0000000000000000e+00 0
0.0000000000000000e+00 0.0000000000000000e+00 0
0.0000000000000000e+00 0.0000000000000000e+00 0
0.0000000000000000e+00 0.0000000000000000e+00 0
0.0000000000000000e+00 0.0000000000000000e+00 0
0.0000000000000000e+00 0.0000000000000000e+00 0
0.0000000000000000e+00 0.0000000000000000e+00 0
0.0000000000000000e+00 0.0000000000000000e+00 0
0.0000000000000000e+00 0.0000000000000000e+00 0
0.0000000000000000e+00 0.0000000000000000e+00 0
0.0000000000000000e+00 0.0000000000000000e+00 0
0.0000000000000000e+00 0.0000000000000000e+00 0
0.0000000000000000e+00 0.0000000000000000e+00 0
0.0000000000000000e+00 0.0000000000000000e+00 0
0.0000000000000000e+00 0.0000000000000000e+00 0
0.0000000000000000e+00 0.0000000000000000e+00 0
0.0000000000000000e+00 0.0000000000000000e+00 0
0.0000000000000000e+00 0.0000000000000000e+00 0
0.0000000000000000e+00 0.0000000000000000e+00 0
0.0000000000000000e+00 0.0000000000000000e+00 0
0.0000000000000000e+00 0.0000000000000000e+00 0
0.0000000000000000e+00 0.0000000000000000e+00 0
0.0000000000000000e+00 0.0000000000000000e+00 0
0.0000000000000000e+00 0.0000000000000000e+00 0
0.0000000000000000e+00 0.0000000000000000e+00 0
0.0000000000000000e+00 0.0000000000000000e+00 0
0.0000000000000000e+00 0.0000000000000000e+00 0
0.0000000000000000e+00 0.0000000000000000e+00 0
0.0000000000000000e+00 0.0000000000000000e+00 0
0.0000000000000000e+00 0.0000000000000000e+00 0
0.0000000000000000e+00 0.0000000000000000e+00 0
0.0000000000000000e+00 0.0000000000000000e+00 0
0.0000000000000000e+00 0.0000000000000000e+00 0
0.0000000000000000e+00 0.0000000000000000e+00 0
0.0000000000000000e+00 0.0000000000000000e+00 0
0.0000000000000000e+00 0.0000000000000000e+00 0
0.0000000000000000e+00 0.0000000000000000e+00 0
0.0000000000000000e+00 0.0000000000000000e+00 0
0.0000000000000000e+00 0.0000000000000000e+00 0
0.0000000000000000e+00 0.0000000000000000e+00 0
0.0000000000000000e+00 0.0000000000000000e+00 0
0.0000000000000000e+00 0.0000000000000000e+00 0
0.0000000000000000e+00 0.0000000000000000e+00 0
0.0000000000000000e+00 0.0000000000000000e+00 0
0.0000000000000000e+00 0.0000000000000000e+00 0
0.0000000000000000e+00 0.0000000000000000e+00 0
0.0000000000000000e+00 0.0000000000000000e+00 0
0.0000000000000000e+00 0.0000000000000000e+00 0
0.0000000000000000e+00 0.0000000000000000e+00 0
0.0000000000000000e+00 0.0000000000000000e+00 0
0.0000000000000000e+00 0.0000000000000000e+00 0
0.0000000000000000e+00 0.0000000000000000e+00 0
0.0000000000000000e+00 0.0000000000000000e+00 0
0.0000000000000000e+00 0.0000000000000000e+00 0
0.0000000000000000e+00 0.0000000000000000e+00 0
0.0000000000000000e+00 0.0000000000000000e+00 0
0.0000000000000000e+00 0.0000000000000000e+00 0
0.0000000000000000e+00 0.0000000000000000e+00 0
0.0000000000000000e+00 0.0000000000000000e+00 0
0.0000000000000000e+00 0.0000000000000000e+00 0
0.0000000000000000e+00 0.0000000000000000e+00 0

VECTORS Displacement float
0.0000000000000000e+00 0.0000000000000000e+00 0
1.5886573668828854e-03 1.6514728489969519e-03 0
6.9014276781671313e-04 9.1758902171986778e-04 0
0.0000000000000000e+00 0.0000000000000000e+00 0
1.4231837808720304e-03 -1.4787932260433003e-03 0
5.9000997569819071e-04 -8.0371747443991229e-04 0
4.1851606312847869e-03 2.7151490819645133e-03 0
2.7666634816362798e-03 2.2237605599813464e-03 0
4.0983154749717234e-03 -2.4915900694957157e-03 0
2.6174123490434651e-03 -2.0288954016304192e-03 0
7.8213944136617929e-03 3.4445770455705758e-03 0
5.9009641042815017e-03 3.1263276131724216e-03 0
7.6356108372702940e-03 -3.1822484929166454e-03 0
5.7922785105628616e-03 -2.8654905335595698e-03 0
1.1913993549369293e-02 3.8213563374999973e-03 0
9.8269696265568494e-03 3.6616278687263571e-03 0
1.1811278505581221e-02 -3.5391694413735063e-03 0
9.6623119713041862e-03 -3.4145055319570968e-03 0
1.6291703570573825e-02 3.9698563884545393e-03 0
1.4085175058559381e-02 3.9243683352546566e-03 0
1.6128527359915035e-02 -3.5833242046201886e-03 0
1.3966114212923795e-02 -3.5802818880795680e-03 0
2.0606886256947676e-02 3.8162391247152814e-03 0
1.8495692705256424e-02 3.9297074773789456e-03 0
2.0415067319358368e-02 -3.3442363975176642e-03 0
1.8311698571012353e-02 -3.5065619652443264e-03 0
2.4499514531025182e-02 3.5038579143425717e-03 0
2.2592323821707228e-02 3.6725391747100492e-03 0
2.4317462623209527e-02 -2.9152830900264072e-03 0
2.2401500175731615e-02 -3.1434672355316311e-03 0
2.7890681894609078e-02 2.9761326123893886e-03 0
2.6297359529759583e-02 3.2639331558240413e-03 0
2.7734352442827570e-02 -2.2772706787580941e-03 0
2.6129396583568758e-02 -2.6169386648859897e-03 0
3.0507623335952753e-02 2.4096921530695134e-03 0
2.9274737608810039e-02 2.6915879919466664e-03 0
3.0359542787784848e-02 -1.6368659360907478e-03 0
2.9124530348733885e-02 -1.9506521531637512e-03 0
3.2444047165776257e-02 1.7297264002751329e-03 0
3.1588239380333255e-02 2.0888361146913083e-03 0
3.2298004248678576e-02 -9.1464300802369914e-04 0
3.1440302914122135e-02 -1.2926417310594070e-03 0
3.3418622304048975e-02 1.0597023795366159e-03 0
3.3039443932583755e-02 1.3737344965568318e-03 0
3.3284160954653683e-02 -2.0841095092977293e-04 0
3.2898141339334899e-02 -5.4059086343495317e-04 0
3.3795352196555599e-02 5.3694935495353108e-04 0
3.3658357899183193e-02 7.9611342803112485e-04 0
3.3674396047156302e-02 3.3011835729089979e-04 0
3.3532030911917504e-02 6.9779759570328737e-05 0
3.3668009411954296e-02 -7.8203820112376443e-05 0
3.3812120855645000e-02 2.4588441028998241e-04 0
3.3560181046561707e-02 8.8901048088184192e-04 0
3.3695483060469031e-02 5.9997251538409298e-04 0
3.2756684183367663e-02 -7.1797682985168428e-04 0
3.3317648177677434e-02 -4.1525097220708733e-04 0
3.2667387572050663e-02 1.5171483978446943e-03 0
3.3218495060668839e-02 1.2034850618811667e-03 0
3.1229890130912485e-02 -1.2460086841411125e-03 0
3.2049095697422487e-02 -9.7512492019823376e-04 0
3.1127493585523632e-02 2.0903836658843489e-03 0
3.1965497289482614e-02 1.8089864513568263e-03 0
2.9083691279952754e-02 -1.8793604677188429e-03 0
3.0259754946038775e-02 -1.5613634830835470e-03 0
2.8970244763442902e-02 2.6278251594940337e-03 0
3.0125313293578336e-02 2.3608404874504284e-03 0
2.6130843473231507e-02 -2.3448164791507967e-03 0
2.7683355307336559e-02 -2.1551426420162740e-03 0
2.6080593497780170e-02 3.1741857972200191e-03 0
2.7640964073508259e-02 2.9137710587570217e-03 0
2.2945363313692166e-02 -2.3976663327232050e-03 0
2.2885042931048784e-02 -5.0392198678953068e-04 0
2.4532643724170251e-02 -2.4039142636886148e-03 0
2.2925032282990483e-02 -1.4493711633842810e-03 0
2.2770634246631102e-02 1.3722485638849300e-03 0
2.2834758625193172e-02 4.2851503534043042e-04 0
2.2690373473266939e-02 3.3751404312685473e-03 0
2.4388494730583955e-02 3.3241099957548518e-03 0
2.2712877086910631e-02 2.3604352074609761e-03 0

VECTORS Stress float
1.1074751271966738e+02 -4.1504339602535936e+00 0
1.1024244820539548e+02 -3.7103550002843804e+00 0
1.1039632043267454e+02 -3.2893737151658797e+00 0
9.2491156653921507e+01 -3.8923001369783208e+00 0
8.9917736315299408e+01 -2.9719718713599832e+00 0
9.0542708415417906e+01 -2.6594636434564336e+00 0
1.1031093736375578e+02 -6.1124424053689381e+00 0
1.1029636607461316e+02 -4.9027899606401206e+00 0
9.0202708925574370e+01 -5.2555322457233160e+00 0
9.0008600286845194e+01 -4.1521252064685541e+00 0
1.0991345313004422e+02 -7.6333586939017550e+00 0
1.1012058127888577e+02 -6.9760844245374756e+00 0
9.0381409235488263e+01 -6.3185594033943744e+00 0
9.0301577487844497e+01 -5.8866362541343733e+00 0
1.0922027998641715e+02 -8.2962055633756790e+00 0
1.0956044535643787e+02 -8.0396344923929064e+00 0
9.1040638063253482e+01 -6.9600721994938795e+00 0
9.0685115516389942e+01 -6.6959753548121625e+00 0
1.0825660701767583e+02 -8.4504032643108076e+00 0
1.0877113136986509e+02 -8.4331314761443537e+00 0
9.2207291190993601e+01 -7.1316493400008767e+00 0
9.1560191629669134e+01 -7.1081398001556408e+00 0
1.0708877145629913e+02 -7.9317776252514705e+00 0
1.0773133534904946e+02 -8.3025737433977156e+00 0
9.3920070558854604e+01 -6.8418455791002089e+00 0
9.2951548657056264e+01 -7.0329382864592844e+00 0
1.0571466544253781e+02 -6.8754181827061984e+00 0
1.0646462725950551e+02 -7.4436193477358756e+00 0
9.6185965614023189e+01 -6.1580519104845735e+00 0
9.4948518246214007e+01 -6.5367204946669517e+00 0
1.0406660044924774e+02 -5.5964422348033622e+00 0
1.0492503735220453e+02 -6.2527714270918295e+00 0
9.8929537720597182e+01 -5.2017774782761990e+00 0
9.7509686412872270e+01 -5.7034588875517329e+00 0
1.0207236503655668e+02 -4.1538554526296139e+00 0
1.0309298530024807e+02 -4.9063998048563917e+00 0
1.0199899679163400e+02 -4.0278889549736050e+00 0
1.0046593509795184e+02 -4.6613684585249757e+00 0
9.9656227969157044e+01 -2.4490822401676269e+00 0
1.0091487561197891e+02 -3.3096633648128773e+00 0
1.0515284242245252e+02 -2.5052311125646156e+00 0
1.0360814717550056e+02 -3.2926810815774843e+00 0
9.6662817740755600e+01 -1.0167289609721593e+00 0
9.8249492109423954e+01 -1.6788740688539292e+00 0
1.0795567347292399e+02 -1.1273071949758560e+00 0
1.0661711087498998e+02 -1.7791040542224437e+00 0
9.2877638287728587e+01 -4.3896798315472552e-02 0
9.4882324779243390e+01 -4.6517621300381506e-01 0
1.1007637720163666e+02 -9.8494585731941697e-02 0
1.0911216415622130e+02 -5.5439561693583528e-01 0
8.8140523212142853e+01 1.0488530906065989e+00 0
9.0621032270883006e+01 4.2034482446592847e-01 0
1.1133138807775572e+02 1.1814297804983198e+00 0
1.1081388853658245e+02 4.4502124584619196e-01 0
8.2094576207386353e+01 1.8926690930150016e+00 0
8.5323018049472466e+01 1.7002461527285959e+00 0
1.1177516213757281e+02 2.5099146891373039e+00 0
1.1161110815504412e+02 2.0083570648462228e+00 0
7.3553806821498029e+01 2.6772854060407099e+00 0
7.8293729635455520e+01 1.7463915818059377e+00 0
1.1065073534619023e+02 3.8301530006457369e+00 0
1.1169389826714564e+02 2.7596796868662068e+00 0
6.0357197918176780e+01 6.4865320245619387e+00 0
6.7509955077723134e+01 6.1443234267567277e+00 0
1.0638947287627849e+02 7.3047869351868826e+00 0
1.0794892805488064e+02 6.6313510933498492e+00 0
4.0424852565472634e+01 -2.3982732422055733e+01 0
5.2539530009939767e+01 -1.0226284104161437e+01 0
1.1947403780461011e+02 -1.1337215256081095e+01 0
1.1386441431990130e+02 -3.4581429195151259e+00 0
-1.2631472387883377e+01 1.4747290433806523e+02 0
-8.0335207179840040e+00 1.6286518105597730e+02 0
1.9002781032190796e+01 2.1396981928599644e+01 0
-9.3015494733575110e+00 1.6804411568132662e+02 0
-1.0313512235399571e+01 1.3448196095015331e+02 0
-8.2355026809485139e+00 1.4853480560185179e+02 0
1.2822957537268707e+01 1.0018769174419091e+02 0
9.0188244672170285e+01 1.8325814388694084e+01 0
-7.1949612303696995e+00 1.1930695241289919e+02 0

