# vtk DataFile Version 2.0

ASCII

DATASET UNSTRUCTURED_GRID

POINTS 79 float 

-5.0000000000000003e-02  0.0000000000000000e+00  0.0000000000000000e+00
-5.0000000000000003e-02  5.5555555555555552e-02  0.0000000000000000e+00
-5.0000000000000003e-02  2.7777777777777776e-02  0.0000000000000000e+00
5.0000000000000003e-02  0.0000000000000000e+00  0.0000000000000000e+00
5.0000000000000003e-02  5.5555555555555552e-02  0.0000000000000000e+00
5.0000000000000003e-02  2.7777777777777776e-02  0.0000000000000000e+00
-5.0000000000000003e-02  1.1111111111111110e-01  0.0000000000000000e+00
-5.0000000000000003e-02  8.3333333333333329e-02  0.0000000000000000e+00
5.0000000000000003e-02  1.1111111111111110e-01  0.0000000000000000e+00
5.0000000000000003e-02  8.3333333333333329e-02  0.0000000000000000e+00
-5.0000000000000003e-02  1.6666666666666666e-01  0.0000000000000000e+00
-5.0000000000000003e-02  1.3888888888888890e-01  0.0000000000000000e+00
5.0000000000000003e-02  1.6666666666666666e-01  0.0000000000000000e+00
5.0000000000000003e-02  1.3888888888888890e-01  0.0000000000000000e+00
-5.0000000000000003e-02  2.2222222222222221e-01  0.0000000000000000e+00
-5.0000000000000003e-02  1.9444444444444442e-01  0.0000000000000000e+00
5.0000000000000003e-02  2.2222222222222221e-01  0.0000000000000000e+00
5.0000000000000003e-02  1.9444444444444442e-01  0.0000000000000000e+00
-5.0000000000000003e-02  2.7777777777777779e-01  0.0000000000000000e+00
-5.0000000000000003e-02  2.5000000000000000e-01  0.0000000000000000e+00
5.0000000000000003e-02  2.7777777777777779e-01  0.0000000000000000e+00
5.0000000000000003e-02  2.5000000000000000e-01  0.0000000000000000e+00
-5.0000000000000003e-02  3.3333333333333331e-01  0.0000000000000000e+00
-5.0000000000000003e-02  3.0555555555555558e-01  0.0000000000000000e+00
5.0000000000000003e-02  3.3333333333333331e-01  0.0000000000000000e+00
5.0000000000000003e-02  3.0555555555555558e-01  0.0000000000000000e+00
-5.0000000000000003e-02  3.8888888888888884e-01  0.0000000000000000e+00
-5.0000000000000003e-02  3.6111111111111105e-01  0.0000000000000000e+00
5.0000000000000003e-02  3.8888888888888884e-01  0.0000000000000000e+00
5.0000000000000003e-02  3.6111111111111105e-01  0.0000000000000000e+00
-5.0000000000000003e-02  4.4444444444444442e-01  0.0000000000000000e+00
-5.0000000000000003e-02  4.1666666666666663e-01  0.0000000000000000e+00
5.0000000000000003e-02  4.4444444444444442e-01  0.0000000000000000e+00
5.0000000000000003e-02  4.1666666666666663e-01  0.0000000000000000e+00
-5.0000000000000003e-02  5.0000000000000000e-01  0.0000000000000000e+00
-5.0000000000000003e-02  4.7222222222222221e-01  0.0000000000000000e+00
5.0000000000000003e-02  5.0000000000000000e-01  0.0000000000000000e+00
5.0000000000000003e-02  4.7222222222222221e-01  0.0000000000000000e+00
-5.0000000000000003e-02  5.5555555555555558e-01  0.0000000000000000e+00
-5.0000000000000003e-02  5.2777777777777779e-01  0.0000000000000000e+00
5.0000000000000003e-02  5.5555555555555558e-01  0.0000000000000000e+00
5.0000000000000003e-02  5.2777777777777779e-01  0.0000000000000000e+00
-5.0000000000000003e-02  6.1111111111111105e-01  0.0000000000000000e+00
-5.0000000000000003e-02  5.8333333333333326e-01  0.0000000000000000e+00
5.0000000000000003e-02  6.1111111111111105e-01  0.0000000000000000e+00
5.0000000000000003e-02  5.8333333333333326e-01  0.0000000000000000e+00
-5.0000000000000003e-02  6.6666666666666663e-01  0.0000000000000000e+00
-5.0000000000000003e-02  6.3888888888888884e-01  0.0000000000000000e+00
5.0000000000000003e-02  6.6666666666666663e-01  0.0000000000000000e+00
5.0000000000000003e-02  6.3888888888888884e-01  0.0000000000000000e+00
-5.0000000000000003e-02  7.2222222222222221e-01  0.0000000000000000e+00
-5.0000000000000003e-02  6.9444444444444442e-01  0.0000000000000000e+00
5.0000000000000003e-02  7.2222222222222221e-01  0.0000000000000000e+00
5.0000000000000003e-02  6.9444444444444442e-01  0.0000000000000000e+00
-5.0000000000000003e-02  7.7777777777777768e-01  0.0000000000000000e+00
-5.0000000000000003e-02  7.5000000000000000e-01  0.0000000000000000e+00
5.0000000000000003e-02  7.7777777777777768e-01  0.0000000000000000e+00
5.0000000000000003e-02  7.5000000000000000e-01  0.0000000000000000e+00
-5.0000000000000003e-02  8.3333333333333326e-01  0.0000000000000000e+00
-5.0000000000000003e-02  8.0555555555555547e-01  0.0000000000000000e+00
5.0000000000000003e-02  8.3333333333333326e-01  0.0000000000000000e+00
5.0000000000000003e-02  8.0555555555555547e-01  0.0000000000000000e+00
-5.0000000000000003e-02  8.8888888888888884e-01  0.0000000000000000e+00
-5.0000000000000003e-02  8.6111111111111105e-01  0.0000000000000000e+00
5.0000000000000003e-02  8.8888888888888884e-01  0.0000000000000000e+00
5.0000000000000003e-02  8.6111111111111105e-01  0.0000000000000000e+00
-5.0000000000000003e-02  9.4444444444444442e-01  0.0000000000000000e+00
-5.0000000000000003e-02  9.1666666666666663e-01  0.0000000000000000e+00
5.0000000000000003e-02  9.4444444444444442e-01  0.0000000000000000e+00
5.0000000000000003e-02  9.1666666666666663e-01  0.0000000000000000e+00
-5.0000000000000003e-02  1.0000000000000000e+00  0.0000000000000000e+00
-1.6666666666666670e-02  1.0000000000000000e+00  0.0000000000000000e+00
-5.0000000000000003e-02  9.7222222222222221e-01  0.0000000000000000e+00
-3.3333333333333340e-02  1.0000000000000000e+00  0.0000000000000000e+00
1.6666666666666663e-02  1.0000000000000000e+00  0.0000000000000000e+00
-3.4694469519536142e-18  1.0000000000000000e+00  0.0000000000000000e+00
5.0000000000000003e-02  1.0000000000000000e+00  0.0000000000000000e+00
5.0000000000000003e-02  9.7222222222222221e-01  0.0000000000000000e+00
3.3333333333333333e-02  1.0000000000000000e+00  0.0000000000000000e+00

CELLS 0 0


CELL_TYPES 0


POINT_DATA 79

VECTORS VertexNormals float

0.0000000000000000e+00 0.0000000000000000e+00 0
0.0000000000000000e+00 0.0000000000000000e+00 0
0.0000000000000000e+00 0.0000000000000000e+00 0
0.0000000000000000e+00 0.0000000000000000e+00 0
0.0000000000000000e+00 0.0000000000000000e+00 0
0.0000000000000000e+00 0.0000000000000000e+00 0
0.0000000000000000e+00 0.0000000000000000e+00 0
0.0000000000000000e+00 0.0000000000000000e+00 0
0.0000000000000000e+00 0.0000000000000000e+00 0
0.0000000000000000e+00 0.0000000000000000e+00 0
0.0000000000000000e+00 0.0000000000000000e+00 0
0.0000000000000000e+00 0.0000000000000000e+00 0
0.0000000000000000e+00 0.0000000000000000e+00 0
0.0000000000000000e+00 0.0000000000000000e+00 0
0.0000000000000000e+00 0.0000000000000000e+00 0
0.0000000000000000e+00 0.0000000000000000e+00 0
0.0000000000000000e+00 0.0000000000000000e+00 0
0.0000000000000000e+00 0.0000000000000000e+00 0
0.0000000000000000e+00 0.0000000000000000e+00 0
0.0000000000000000e+00 0.0000000000000000e+00 0
0.0000000000000000e+00 0.0000000000000000e+00 0
0.0000000000000000e+00 0.0000000000000000e+00 0
0.0000000000000000e+00 0.0000000000000000e+00 0
0.0000000000000000e+00 0.0000000000000000e+00 0
0.0000000000000000e+00 0.0000000000000000e+00 0
0.0000000000000000e+00 0.0000000000000000e+00 0
0.0000000000000000e+00 0.0000000000000000e+00 0
0.0000000000000000e+00 0.0000000000000000e+00 0
0.0000000000000000e+00 0.0000000000000000e+00 0
0.0000000000000000e+00 0.0000000000000000e+00 0
0.0000000000000000e+00 0.0000000000000000e+00 0
0.0000000000000000e+00 0.0000000000000000e+00 0
0.0000000000000000e+00 0.0000000000000000e+00 0
0.0000000000000000e+00 0.0000000000000000e+00 0
0.0000000000000000e+00 0.0000000000000000e+00 0
0.0000000000000000e+00 0.0000000000000000e+00 0
0.0000000000000000e+00 0.0000000000000000e+00 0
0.0000000000000000e+00 0.0000000000000000e+00 0
0.0000000000000000e+00 0.0000000000000000e+00 0
0.0000000000000000e+00 0.0000000000000000e+00 0
0.0000000000000000e+00 0.0000000000000000e+00 0
0.0000000000000000e+00 0.0000000000000000e+00 0
0.0000000000000000e+00 0.0000000000000000e+00 0
0.0000000000000000e+00 0.0000000000000000e+00 0
0.0000000000000000e+00 0.0000000000000000e+00 0
0.0000000000000000e+00 0.0000000000000000e+00 0
0.0000000000000000e+00 0.0000000000000000e+00 0
0.0000000000000000e+00 0.0000000000000000e+00 0
0.0000000000000000e+00 0.0000000000000000e+00 0
0.0000000000000000e+00 0.0000000000000000e+00 0
0.0000000000000000e+00 0.0000000000000000e+00 0
0.0000000000000000e+00 0.0000000000000000e+00 0
0.0000000000000000e+00 0.0000000000000000e+00 0
0.0000000000000000e+00 0.0000000000000000e+00 0
0.0000000000000000e+00 0.0000000000000000e+00 0
0.0000000000000000e+00 0.0000000000000000e+00 0
0.0000000000000000e+00 0.0000000000000000e+00 0
0.0000000000000000e+00 0.0000000000000000e+00 0
0.0000000000000000e+00 0.0000000000000000e+00 0
0.0000000000000000e+00 0.0000000000000000e+00 0
0.0000000000000000e+00 0.0000000000000000e+00 0
0.0000000000000000e+00 0.0000000000000000e+00 0
0.0000000000000000e+00 0.0000000000000000e+00 0
0.0000000000000000e+00 0.0000000000000000e+00 0
0.0000000000000000e+00 0.0000000000000000e+00 0
0.0000000000000000e+00 0.0000000000000000e+00 0
0.0000000000000000e+00 0.0000000000000000e+00 0
0.0000000000000000e+00 0.0000000000000000e+00 0
0.0000000000000000e+00 0.0000000000000000e+00 0
0.0000000000000000e+00 0.0000000000000000e+00 0
0.0000000000000000e+00 0.0000000000000000e+00 0
0.0000000000000000e+00 0.0000000000000000e+00 0
0.0000000000000000e+00 0.0000000000000000e+00 0
0.0000000000000000e+00 0.0000000000000000e+00 0
0.0000000000000000e+00 0.0000000000000000e+00 0
0.0000000000000000e+00 0.0000000000000000e+00 0
0.0000000000000000e+00 0.0000000000000000e+00 0
0.0000000000000000e+00 0.0000000000000000e+00 0
0.0000000000000000e+00 0.0000000000000000e+00 0

VECTORS Displacement float
0.0000000000000000e+00 0.0000000000000000e+00 0
2.9519291516643537e-03 3.6670487346941415e-03 0
1.2556197639077647e-03 1.9010569359177866e-03 0
0.0000000000000000e+00 0.0000000000000000e+00 0
2.9917499292219842e-03 -3.9049215882952194e-03 0
1.2724154627659131e-03 -2.0157816824813478e-03 0
9.4023540292968860e-03 7.1448561247016238e-03 0
5.6673686851997232e-03 5.4320537519733647e-03 0
9.4528516469175317e-03 -7.5984006050586654e-03 0
5.7294880656319587e-03 -5.7789525150224201e-03 0
1.9737121170774977e-02 1.0293024868332008e-02 0
1.4140183180428884e-02 8.7605499895017612e-03 0
1.9703648304568621e-02 -1.1007507062276004e-02 0
1.4148478752863784e-02 -9.3349547679496495e-03 0
3.3492516751529006e-02 1.3132517116399558e-02 0
2.6171266314970094e-02 1.1742873802967003e-02 0
3.3552399190426505e-02 -1.4135924784232663e-02 0
2.6168343084007999e-02 -1.2616815704340088e-02 0
5.0523395380712169e-02 1.5628855650148543e-02 0
4.1646230077503163e-02 1.4420895354949032e-02 0
5.0489262580420892e-02 -1.6821935561981197e-02 0
4.1687580714739533e-02 -1.5514483576413510e-02 0
7.0009318818728947e-02 1.7831739738342074e-02 0
5.9990003521900800e-02 1.6752204499443535e-02 0
7.0010900273282994e-02 -1.9184472917886740e-02 0
5.9954383496257688e-02 -1.8038934556787695e-02 0
9.1961804328775515e-02 1.9842393070126283e-02 0
8.0670605893486763e-02 1.8872890396779751e-02 0
9.1901638998140217e-02 -2.1377404466884006e-02 0
8.0662969199736548e-02 -2.0289979799033183e-02 0
1.1604091282977232e-01 2.1508373400589004e-02 0
1.0375888228292311e-01 2.0708972406574915e-02 0
1.1602791067999382e-01 -2.3341217555986060e-02 0
1.0368677066031157e-01 -2.2411612451489454e-02 0
1.4197935871096495e-01 2.3070014025163441e-02 0
1.2878634178394602e-01 2.2289586675418145e-02 0
1.4194410647376635e-01 -2.4967809910750233e-02 0
1.2879578084800689e-01 -2.4173114801235823e-02 0
1.6974489326970105e-01 2.4393430553659660e-02 0
1.5566271087218092e-01 2.3786146149344628e-02 0
1.6966749923102270e-01 -2.6411840646314973e-02 0
1.5557555435822285e-01 -2.5731520776253104e-02 0
1.9885917855525828e-01 2.5350596296553195e-02 0
1.8413874920254705e-01 2.4910138210819506e-02 0
1.9877522126610947e-01 -2.7440712551248969e-02 0
1.8408714085938127e-01 -2.6964496511334465e-02 0
2.2893455515198038e-01 2.5953725668127849e-02 0
2.1382028364305194e-01 2.5686256929970931e-02 0
2.2879138879401947e-01 -2.8178099210716748e-02 0
2.1367992997616470e-01 -2.7853939305092348e-02 0
2.5955561242185932e-01 2.6224219858589103e-02 0
2.4419679578124526e-01 2.6138316754589080e-02 0
2.5947113408392286e-01 -2.8375034140174057e-02 0
2.4410228256703220e-01 -2.8352723409416025e-02 0
2.9004993406243945e-01 2.6082204432253241e-02 0
2.7486821652397880e-01 2.6187821850226757e-02 0
2.8990161048842583e-01 -2.8135064576167497e-02 0
2.7474691493671610e-01 -2.8273595653527696e-02 0
3.2002107367875920e-01 2.5849809197409139e-02 0
3.0510285578277319e-01 2.5948442311334544e-02 0
3.1994436004143539e-01 -2.7867058496419662e-02 0
3.0499361512742734e-01 -2.7982291014700345e-02 0
3.4989821876863630e-01 2.5891647849221586e-02 0
3.3492262411396612e-01 2.5852608517987246e-02 0
3.4970651081118287e-01 -2.7945391611264331e-02 0
3.3479078667120821e-01 -2.7868569165333562e-02 0
3.7983387478718217e-01 2.5937963895581142e-02 0
3.6487752224778203e-01 2.5914686724702443e-02 0
3.7981298681877745e-01 -2.8026631115528375e-02 0
3.6473191377259256e-01 -2.8010892968017034e-02 0
4.0985807168344440e-01 2.5991257146914658e-02 0
4.0983602083915538e-01 7.9738360645054476e-03 0
3.9482832701624448e-01 2.5973700856772853e-02 0
4.0984724956407814e-01 1.6981803562664474e-02 0
4.0982205156218454e-01 -1.0048891211187613e-02 0
4.0982992109789224e-01 -1.0465181521580333e-03 0
4.0981123621962207e-01 -2.7959358495448547e-02 0
3.9486424570250650e-01 -2.7987840840012761e-02 0
4.0981670673117609e-01 -1.9011772079542601e-02 0

VECTORS Stress float
2.1771946455195939e+02 -1.0928145213248399e+01 0
2.1864637100484970e+02 -1.6646256039702848e+01 0
2.1877347707410757e+02 -1.1550969322815490e+01 0
-9.1042786933562638e+01 9.4716308624400654e+00 0
-9.4457257420122687e+01 7.6920017706422641e+00 0
-9.3897183938092894e+01 6.2403524635992653e+00 0
2.1713649424015478e+02 -3.1079282948607215e+01 0
2.1801165948631467e+02 -2.3892568716863934e+01 0
-9.3246214377753745e+01 1.5143252614346693e+01 0
-9.3908952298807321e+01 1.1434194246426159e+01 0
2.1452588296805084e+02 -4.4057543372197415e+01 0
2.1592502981834423e+02 -3.7731683287819578e+01 0
-9.2361027881479231e+01 2.1249092480327363e+01 0
-9.2719478549254973e+01 1.8316044068467363e+01 0
2.1022748583875659e+02 -5.5794279759072651e+01 0
2.1247040089459165e+02 -5.0107627887427498e+01 0
-9.1220542608470168e+01 2.6769354612612005e+01 0
-9.1731331306760694e+01 2.4047264227138839e+01 0
2.0507792519022018e+02 -6.4532487658639184e+01 0
2.0773887126855652e+02 -6.0542712654776551e+01 0
-9.0270164234504591e+01 3.1050557812138777e+01 0
-9.0719347913607180e+01 2.9055988681062445e+01 0
1.9918007877180798e+02 -7.1479482317055044e+01 0
2.0228415997133220e+02 -6.8187997709464071e+01 0
-8.9407317226199893e+01 3.4720505137428518e+01 0
-8.9897453416970166e+01 3.2983120338600202e+01 0
1.9277544116416243e+02 -7.7142548458225065e+01 0
1.9604267676557629e+02 -7.4595176375393748e+01 0
-8.8536349021829892e+01 3.8063393959519090e+01 0
-8.9009106943094594e+01 3.6518780404555400e+01 0
1.8618270228768097e+02 -8.1341982444261248e+01 0
1.8948994295367561e+02 -7.9411081488970012e+01 0
-8.7699007421794022e+01 4.0931834568190425e+01 0
-8.8098980328112475e+01 3.9581261298369100e+01 0
1.7947608796474196e+02 -8.4332769407946216e+01 0
1.8282378788646020e+02 -8.2878208155693756e+01 0
-8.6925103047880611e+01 4.3173252281077566e+01 0
-8.7295389681807364e+01 4.2021527899536977e+01 0
1.7265843925984791e+02 -8.6402052248400196e+01 0
1.7604055677721112e+02 -8.5404777840563384e+01 0
-8.5983982764717439e+01 4.5079013068433142e+01 0
-8.6451475164404201e+01 4.4101913674667230e+01 0
1.6633728421996966e+02 -8.7157433453763588e+01 0
1.6942369655134189e+02 -8.6946668794797006e+01 0
-8.5118071038996959e+01 4.6099213034367494e+01 0
-8.5543043216760680e+01 4.5706952670400824e+01 0
1.6054050259307644e+02 -8.6768303266227122e+01 0
1.6337527164830294e+02 -8.7193173453357304e+01 0
-8.4211641227251448e+01 4.6445759174317573e+01 0
-8.4683548298757387e+01 4.6432524968408870e+01 0
1.5524428288455920e+02 -8.5065908436954942e+01 0
1.5780981991546867e+02 -8.6232043743721988e+01 0
-8.3323307990673015e+01 4.5930914316214057e+01 0
-8.3746655839902928e+01 4.6450930093969419e+01 0
1.5042837052836546e+02 -8.1836311303608909e+01 0
1.5277422919132857e+02 -8.3611639925143209e+01 0
-8.2453472229331737e+01 4.4857759554471386e+01 0
-8.2923374855322095e+01 4.5318207310618163e+01 0
1.4462727921649179e+02 -7.7472525683164577e+01 0
1.4800249159060485e+02 -7.9676477942980227e+01 0
-8.1332918845171719e+01 4.3727882834313050e+01 0
-8.1906775844987578e+01 4.4447051220752201e+01 0
1.3452600348539727e+02 -7.2666506273067398e+01 0
1.3912069013631117e+02 -7.5000063041842395e+01 0
-7.9665894627726971e+01 4.1611539368219837e+01 0
-8.0443783390726708e+01 4.1844246521503123e+01 0
1.3978898541335346e+02 -7.0053219479408199e+01 0
1.3822471451679021e+02 -7.1383100953306780e+01 0
-8.0629139095237178e+01 5.6892748037319024e+01 0
-7.9883893144067827e+01 4.9906885431922689e+01 0
2.5990109421868169e+01 -3.8906343667468491e+01 0
-2.5916045366643090e+01 -3.4507408659614441e+01 0
1.0573026251281996e+02 -5.9666696487882518e+01 0
-1.4502299286963762e+01 -2.6989567419436071e+01 0
-2.6558108194462200e+01 -6.1134186358801230e+01 0
-2.6398864130060872e+01 -4.8629324078749505e+01 0
-6.2486635468134992e+01 -4.0142429691274458e+01 0
-7.4751129300739876e+01 3.0471905190073009e+01 0
-3.4329687323131935e+01 -6.3521174584059864e+01 0

