# vtk DataFile Version 2.0

ASCII

DATASET UNSTRUCTURED_GRID

POINTS 79 float 

-5.0000000000000003e-02  0.0000000000000000e+00  0.0000000000000000e+00
-5.0000000000000003e-02  5.5555555555555552e-02  0.0000000000000000e+00
-5.0000000000000003e-02  2.7777777777777776e-02  0.0000000000000000e+00
5.0000000000000003e-02  0.0000000000000000e+00  0.0000000000000000e+00
5.0000000000000003e-02  5.5555555555555552e-02  0.0000000000000000e+00
5.0000000000000003e-02  2.7777777777777776e-02  0.0000000000000000e+00
-5.0000000000000003e-02  1.1111111111111110e-01  0.0000000000000000e+00
-5.0000000000000003e-02  8.3333333333333329e-02  0.0000000000000000e+00
5.0000000000000003e-02  1.1111111111111110e-01  0.0000000000000000e+00
5.0000000000000003e-02  8.3333333333333329e-02  0.0000000000000000e+00
-5.0000000000000003e-02  1.6666666666666666e-01  0.0000000000000000e+00
-5.0000000000000003e-02  1.3888888888888890e-01  0.0000000000000000e+00
5.0000000000000003e-02  1.6666666666666666e-01  0.0000000000000000e+00
5.0000000000000003e-02  1.3888888888888890e-01  0.0000000000000000e+00
-5.0000000000000003e-02  2.2222222222222221e-01  0.0000000000000000e+00
-5.0000000000000003e-02  1.9444444444444442e-01  0.0000000000000000e+00
5.0000000000000003e-02  2.2222222222222221e-01  0.0000000000000000e+00
5.0000000000000003e-02  1.9444444444444442e-01  0.0000000000000000e+00
-5.0000000000000003e-02  2.7777777777777779e-01  0.0000000000000000e+00
-5.0000000000000003e-02  2.5000000000000000e-01  0.0000000000000000e+00
5.0000000000000003e-02  2.7777777777777779e-01  0.0000000000000000e+00
5.0000000000000003e-02  2.5000000000000000e-01  0.0000000000000000e+00
-5.0000000000000003e-02  3.3333333333333331e-01  0.0000000000000000e+00
-5.0000000000000003e-02  3.0555555555555558e-01  0.0000000000000000e+00
5.0000000000000003e-02  3.3333333333333331e-01  0.0000000000000000e+00
5.0000000000000003e-02  3.0555555555555558e-01  0.0000000000000000e+00
-5.0000000000000003e-02  3.8888888888888884e-01  0.0000000000000000e+00
-5.0000000000000003e-02  3.6111111111111105e-01  0.0000000000000000e+00
5.0000000000000003e-02  3.8888888888888884e-01  0.0000000000000000e+00
5.0000000000000003e-02  3.6111111111111105e-01  0.0000000000000000e+00
-5.0000000000000003e-02  4.4444444444444442e-01  0.0000000000000000e+00
-5.0000000000000003e-02  4.1666666666666663e-01  0.0000000000000000e+00
5.0000000000000003e-02  4.4444444444444442e-01  0.0000000000000000e+00
5.0000000000000003e-02  4.1666666666666663e-01  0.0000000000000000e+00
-5.0000000000000003e-02  5.0000000000000000e-01  0.0000000000000000e+00
-5.0000000000000003e-02  4.7222222222222221e-01  0.0000000000000000e+00
5.0000000000000003e-02  5.0000000000000000e-01  0.0000000000000000e+00
5.0000000000000003e-02  4.7222222222222221e-01  0.0000000000000000e+00
-5.0000000000000003e-02  5.5555555555555558e-01  0.0000000000000000e+00
-5.0000000000000003e-02  5.2777777777777779e-01  0.0000000000000000e+00
5.0000000000000003e-02  5.5555555555555558e-01  0.0000000000000000e+00
5.0000000000000003e-02  5.2777777777777779e-01  0.0000000000000000e+00
-5.0000000000000003e-02  6.1111111111111105e-01  0.0000000000000000e+00
-5.0000000000000003e-02  5.8333333333333326e-01  0.0000000000000000e+00
5.0000000000000003e-02  6.1111111111111105e-01  0.0000000000000000e+00
5.0000000000000003e-02  5.8333333333333326e-01  0.0000000000000000e+00
-5.0000000000000003e-02  6.6666666666666663e-01  0.0000000000000000e+00
-5.0000000000000003e-02  6.3888888888888884e-01  0.0000000000000000e+00
5.0000000000000003e-02  6.6666666666666663e-01  0.0000000000000000e+00
5.0000000000000003e-02  6.3888888888888884e-01  0.0000000000000000e+00
-5.0000000000000003e-02  7.2222222222222221e-01  0.0000000000000000e+00
-5.0000000000000003e-02  6.9444444444444442e-01  0.0000000000000000e+00
5.0000000000000003e-02  7.2222222222222221e-01  0.0000000000000000e+00
5.0000000000000003e-02  6.9444444444444442e-01  0.0000000000000000e+00
-5.0000000000000003e-02  7.7777777777777768e-01  0.0000000000000000e+00
-5.0000000000000003e-02  7.5000000000000000e-01  0.0000000000000000e+00
5.0000000000000003e-02  7.7777777777777768e-01  0.0000000000000000e+00
5.0000000000000003e-02  7.5000000000000000e-01  0.0000000000000000e+00
-5.0000000000000003e-02  8.3333333333333326e-01  0.0000000000000000e+00
-5.0000000000000003e-02  8.0555555555555547e-01  0.0000000000000000e+00
5.0000000000000003e-02  8.3333333333333326e-01  0.0000000000000000e+00
5.0000000000000003e-02  8.0555555555555547e-01  0.0000000000000000e+00
-5.0000000000000003e-02  8.8888888888888884e-01  0.0000000000000000e+00
-5.0000000000000003e-02  8.6111111111111105e-01  0.0000000000000000e+00
5.0000000000000003e-02  8.8888888888888884e-01  0.0000000000000000e+00
5.0000000000000003e-02  8.6111111111111105e-01  0.0000000000000000e+00
-5.0000000000000003e-02  9.4444444444444442e-01  0.0000000000000000e+00
-5.0000000000000003e-02  9.1666666666666663e-01  0.0000000000000000e+00
5.0000000000000003e-02  9.4444444444444442e-01  0.0000000000000000e+00
5.0000000000000003e-02  9.1666666666666663e-01  0.0000000000000000e+00
-5.0000000000000003e-02  1.0000000000000000e+00  0.0000000000000000e+00
-1.6666666666666670e-02  1.0000000000000000e+00  0.0000000000000000e+00
-5.0000000000000003e-02  9.7222222222222221e-01  0.0000000000000000e+00
-3.3333333333333340e-02  1.0000000000000000e+00  0.0000000000000000e+00
1.6666666666666663e-02  1.0000000000000000e+00  0.0000000000000000e+00
-3.4694469519536142e-18  1.0000000000000000e+00  0.0000000000000000e+00
5.0000000000000003e-02  1.0000000000000000e+00  0.0000000000000000e+00
5.0000000000000003e-02  9.7222222222222221e-01  0.0000000000000000e+00
3.3333333333333333e-02  1.0000000000000000e+00  0.0000000000000000e+00

CELLS 0 0


CELL_TYPES 0


POINT_DATA 79

VECTORS VertexNormals float

0.0000000000000000e+00 0.0000000000000000e+00 0
0.0000000000000000e+00 0.0000000000000000e+00 0
0.0000000000000000e+00 0.0000000000000000e+00 0
0.0000000000000000e+00 0.0000000000000000e+00 0
0.0000000000000000e+00 0.0000000000000000e+00 0
0.0000000000000000e+00 0.0000000000000000e+00 0
0.0000000000000000e+00 0.0000000000000000e+00 0
0.0000000000000000e+00 0.0000000000000000e+00 0
0.0000000000000000e+00 0.0000000000000000e+00 0
0.0000000000000000e+00 0.0000000000000000e+00 0
0.0000000000000000e+00 0.0000000000000000e+00 0
0.0000000000000000e+00 0.0000000000000000e+00 0
0.0000000000000000e+00 0.0000000000000000e+00 0
0.0000000000000000e+00 0.0000000000000000e+00 0
0.0000000000000000e+00 0.0000000000000000e+00 0
0.0000000000000000e+00 0.0000000000000000e+00 0
0.0000000000000000e+00 0.0000000000000000e+00 0
0.0000000000000000e+00 0.0000000000000000e+00 0
0.0000000000000000e+00 0.0000000000000000e+00 0
0.0000000000000000e+00 0.0000000000000000e+00 0
0.0000000000000000e+00 0.0000000000000000e+00 0
0.0000000000000000e+00 0.0000000000000000e+00 0
0.0000000000000000e+00 0.0000000000000000e+00 0
0.0000000000000000e+00 0.0000000000000000e+00 0
0.0000000000000000e+00 0.0000000000000000e+00 0
0.0000000000000000e+00 0.0000000000000000e+00 0
0.0000000000000000e+00 0.0000000000000000e+00 0
0.0000000000000000e+00 0.0000000000000000e+00 0
0.0000000000000000e+00 0.0000000000000000e+00 0
0.0000000000000000e+00 0.0000000000000000e+00 0
0.0000000000000000e+00 0.0000000000000000e+00 0
0.0000000000000000e+00 0.0000000000000000e+00 0
0.0000000000000000e+00 0.0000000000000000e+00 0
0.0000000000000000e+00 0.0000000000000000e+00 0
0.0000000000000000e+00 0.0000000000000000e+00 0
0.0000000000000000e+00 0.0000000000000000e+00 0
0.0000000000000000e+00 0.0000000000000000e+00 0
0.0000000000000000e+00 0.0000000000000000e+00 0
0.0000000000000000e+00 0.0000000000000000e+00 0
0.0000000000000000e+00 0.0000000000000000e+00 0
0.0000000000000000e+00 0.0000000000000000e+00 0
0.0000000000000000e+00 0.0000000000000000e+00 0
0.0000000000000000e+00 0.0000000000000000e+00 0
0.0000000000000000e+00 0.0000000000000000e+00 0
0.0000000000000000e+00 0.0000000000000000e+00 0
0.0000000000000000e+00 0.0000000000000000e+00 0
0.0000000000000000e+00 0.0000000000000000e+00 0
0.0000000000000000e+00 0.0000000000000000e+00 0
0.0000000000000000e+00 0.0000000000000000e+00 0
0.0000000000000000e+00 0.0000000000000000e+00 0
0.0000000000000000e+00 0.0000000000000000e+00 0
0.0000000000000000e+00 0.0000000000000000e+00 0
0.0000000000000000e+00 0.0000000000000000e+00 0
0.0000000000000000e+00 0.0000000000000000e+00 0
0.0000000000000000e+00 0.0000000000000000e+00 0
0.0000000000000000e+00 0.0000000000000000e+00 0
0.0000000000000000e+00 0.0000000000000000e+00 0
0.0000000000000000e+00 0.0000000000000000e+00 0
0.0000000000000000e+00 0.0000000000000000e+00 0
0.0000000000000000e+00 0.0000000000000000e+00 0
0.0000000000000000e+00 0.0000000000000000e+00 0
0.0000000000000000e+00 0.0000000000000000e+00 0
0.0000000000000000e+00 0.0000000000000000e+00 0
0.0000000000000000e+00 0.0000000000000000e+00 0
0.0000000000000000e+00 0.0000000000000000e+00 0
0.0000000000000000e+00 0.0000000000000000e+00 0
0.0000000000000000e+00 0.0000000000000000e+00 0
0.0000000000000000e+00 0.0000000000000000e+00 0
0.0000000000000000e+00 0.0000000000000000e+00 0
0.0000000000000000e+00 0.0000000000000000e+00 0
0.0000000000000000e+00 0.0000000000000000e+00 0
0.0000000000000000e+00 0.0000000000000000e+00 0
0.0000000000000000e+00 0.0000000000000000e+00 0
0.0000000000000000e+00 0.0000000000000000e+00 0
0.0000000000000000e+00 0.0000000000000000e+00 0
0.0000000000000000e+00 0.0000000000000000e+00 0
0.0000000000000000e+00 0.0000000000000000e+00 0
0.0000000000000000e+00 0.0000000000000000e+00 0
0.0000000000000000e+00 0.0000000000000000e+00 0

VECTORS Displacement float
0.0000000000000000e+00 0.0000000000000000e+00 0
2.7494170694664930e-03 2.8785140526051177e-03 0
1.2401521627622080e-03 1.5733121702183445e-03 0
0.0000000000000000e+00 0.0000000000000000e+00 0
2.5944797468727045e-03 -2.7475468296076820e-03 0
1.1407238725669243e-03 -1.4825947361807820e-03 0
7.6302100565663038e-03 5.0711361910485975e-03 0
4.9288603395035739e-03 4.0513977347360359e-03 0
7.5470988272735018e-03 -4.8826543069754504e-03 0
4.7923900404003919e-03 -3.8973951383403389e-03 0
1.4484086153344022e-02 6.5748201115504272e-03 0
1.0844004376650979e-02 5.8984763273352905e-03 0
1.4346616774433420e-02 -6.3053688060767986e-03 0
1.0742251675158321e-02 -5.6626154686251259e-03 0
2.2582449996022238e-02 7.5179897924298744e-03 0
1.8403606293353386e-02 7.1114103509038124e-03 0
2.2512677676961253e-02 -7.1443121734402031e-03 0
1.8285969029370068e-02 -6.8097054525744806e-03 0
3.1327687827602764e-02 7.7840176508892590e-03 0
2.6955335342401809e-02 7.7352667568162982e-03 0
3.1178574046150785e-02 -7.2564477653089335e-03 0
2.6874222517036660e-02 -7.2641176809175624e-03 0
3.9786281303535759e-02 7.5439716782854938e-03 0
3.5627351017616382e-02 7.6972661838604142e-03 0
3.9662473854866612e-02 -6.9932444139541271e-03 0
3.5458737434030468e-02 -7.1638403253258803e-03 0
4.7638885925432348e-02 7.2864920033018817e-03 0
4.3772643862764207e-02 7.3941628434409240e-03 0
4.7464046132309354e-02 -6.5706618666689625e-03 0
4.3664747540320223e-02 -6.7676696416786985e-03 0
5.5211504239654721e-02 7.1739677779755597e-03 0
5.1434838375046976e-02 7.2264181953395241e-03 0
5.5070654134593860e-02 -6.3558363999751876e-03 0
5.1231081336357787e-02 -6.4615018310305687e-03 0
6.2686205476968709e-02 6.9806298898348858e-03 0
5.8974570291194295e-02 7.0918881830186378e-03 0
6.2536065049662026e-02 -6.0373709363448968e-03 0
5.8860726440296149e-02 -6.1981049756332819e-03 0
6.9797133495573399e-02 6.6900458286702144e-03 0
6.6311108709865146e-02 6.8398217099257730e-03 0
6.9660947806171908e-02 -5.6401486618794586e-03 0
6.6147309585993186e-02 -5.8608144652013850e-03 0
7.6473903962970019e-02 6.3945416766399543e-03 0
7.3164475618966079e-02 6.5527392974513692e-03 0
7.6322862820456722e-02 -5.1935484275877023e-03 0
7.3045006637670190e-02 -5.4083899127186780e-03 0
8.2694642157749590e-02 5.9446866433202367e-03 0
7.9674233998840799e-02 6.1798737862249677e-03 0
8.2597585535720774e-02 -4.7752208999010271e-03 0
7.9507865753751850e-02 -4.9884636907749549e-03 0
8.8297001924116436e-02 5.4931659638003134e-03 0
8.5560823588123849e-02 5.7137187219897488e-03 0
8.8242903186237454e-02 -4.3109154351361773e-03 0
8.5532733062246305e-02 -4.5354745392797479e-03 0
9.3435935737342685e-02 5.1956738285404008e-03 0
9.0908896907103409e-02 5.3205778785822269e-03 0
9.3334906847649918e-02 -4.0521774347189333e-03 0
9.0799488920199040e-02 -4.1575285426972064e-03 0
9.8336611931485934e-02 5.0267396327724270e-03 0
9.5902319335507052e-02 5.1037009235299236e-03 0
9.8299516619590188e-02 -3.8378060848352001e-03 0
9.5861559177361985e-02 -3.9478815347751767e-03 0
1.0309711360617985e-01 4.8734079078869858e-03 0
1.0075247384718106e-01 4.9434026215186390e-03 0
1.0294812201329476e-01 -3.7430065254159053e-03 0
1.0063306276147158e-01 -3.7670730986722680e-03 0
1.0774090638525016e-01 4.8537251325264479e-03 0
1.0540953872473990e-01 4.8446418380058134e-03 0
1.0767114825457411e-01 -3.7147659720354301e-03 0
1.0531043094391100e-01 -3.7397374530170613e-03 0
1.1246232802895234e-01 4.9018103869956850e-03 0
1.1244669321390414e-01 2.0297146584747515e-03 0
1.1009020515767928e-01 4.8818000218092154e-03 0
1.1245859214765522e-01 3.4669705461420411e-03 0
1.1236696719585515e-01 -8.2549543251371211e-04 0
1.1241529184531240e-01 6.0027770313152975e-04 0
1.1228513885420757e-01 -3.6496807858882874e-03 0
1.0997783686558783e-01 -3.6743403523950904e-03 0
1.1231277789081950e-01 -2.2521755688479153e-03 0

VECTORS Stress float
1.1490537355442828e+02 -5.5298327388698567e+00 0
1.1511025881915884e+02 -7.2159812819660374e+00 0
1.1510416639624560e+02 -5.6564458528281421e+00 0
5.0625032695200133e+01 -2.8422974772370821e+00 0
4.8375807899745041e+01 -3.1738402998931861e+00 0
4.8957137209095322e+01 -2.5574966734633335e+00 0
1.1505557858506836e+02 -1.1853970235102224e+01 0
1.1510335025095799e+02 -9.5755976068278414e+00 0
4.8395285782960855e+01 -5.3809692006980185e+00 0
4.8348705185377185e+01 -4.3056172149113081e+00 0
1.1471509023941917e+02 -1.5219925221917492e+01 0
1.1488491310614108e+02 -1.3675758629691927e+01 0
4.8347054063380938e+01 -6.6606519898634815e+00 0
4.8383291528440395e+01 -6.1154065675129914e+00 0
1.1404118005901660e+02 -1.7275650660273641e+01 0
1.1436706834379311e+02 -1.6402304134311862e+01 0
4.8769732831455258e+01 -7.4945505305513507e+00 0
4.8531561411537268e+01 -7.1671178361027614e+00 0
1.1316980788163164e+02 -1.7536975202538997e+01 0
1.1362537937985007e+02 -1.7631221603679933e+01 0
4.9846682217936177e+01 -7.7010716077807047e+00 0
4.9221427148534985e+01 -7.6783115829548478e+00 0
1.1213142820009125e+02 -1.6453159065548334e+01 0
1.1271885261276429e+02 -1.7143722428203091e+01 0
5.1642175674568080e+01 -7.4060686299735607e+00 0
5.0606007963696811e+01 -7.5698702657236936e+00 0
1.1069628362237563e+02 -1.5267779838799470e+01 0
1.1153139066717540e+02 -1.5760923222257134e+01 0
5.3896525085599478e+01 -7.2803583640411489e+00 0
5.2703089550714139e+01 -7.2413124520048768e+00 0
1.0865154572025176e+02 -1.4632083804242939e+01 0
1.0974390974550033e+02 -1.4926850406306130e+01 0
5.6341324298036852e+01 -7.5281978753764633e+00 0
5.5096190578344704e+01 -7.4160932694990152e+00 0
1.0602944828682598e+02 -1.3912996503832801e+01 0
1.0737682475027668e+02 -1.4312698592426841e+01 0
5.8953289254837728e+01 -7.5364773329092714e+00 0
5.7670422237331422e+01 -7.5689662242098166e+00 0
1.0286835580784145e+02 -1.2642699479094290e+01 0
1.0450317518792303e+02 -1.3311233347727466e+01 0
6.1557565570834640e+01 -7.4074250356638913e+00 0
6.0295793403381822e+01 -7.4967151248142727e+00 0
9.9007856482166972e+01 -1.1417919896096237e+01 0
1.0103534161790390e+02 -1.2017354209619498e+01 0
6.3902229893613594e+01 -7.2473722998543053e+00 0
6.2768167735796396e+01 -7.3339090160602609e+00 0
9.4438745240487606e+01 -9.9668027925597471e+00 0
9.6824752992437880e+01 -1.0751608376263221e+01 0
6.5948295261341173e+01 -6.8343762418878669e+00 0
6.4944176199192043e+01 -7.0795598604297538e+00 0
8.8859489599219614e+01 -8.3624501685685573e+00 0
9.1819859433162264e+01 -9.1402172090145086e+00 0
6.7491712830271126e+01 -6.2749916211887466e+00 0
6.6794218370244607e+01 -6.5247141918935085e+00 0
8.1703015796273121e+01 -7.2868204762556843e+00 0
8.5517014122894579e+01 -7.6691175375260627e+00 0
6.8446300574820043e+01 -6.0762174575839936e+00 0
6.8006622781975125e+01 -6.0723206966384851e+00 0
7.2198741662435509e+01 -6.0332998830306224e+00 0
7.7299567364047107e+01 -7.0756807686317416e+00 0
6.8571188084707444e+01 -5.6914072119404864e+00 0
6.8774290108164450e+01 -6.1874219730304958e+00 0
5.9136881684206742e+01 -2.2652759656947410e+00 0
6.6199749158994791e+01 -3.0889732357164803e+00 0
6.7126644041698711e+01 -3.8812363813262891e+00 0
6.7510201157417782e+01 -3.9865609933321480e+00 0
3.9138423884170550e+01 -2.2028005172247163e+01 0
5.0508362804929220e+01 -1.3432985292627052e+01 0
7.5747721101455753e+01 -1.8523198763251855e+01 0
7.1884042252142990e+01 -1.2305549675508075e+01 0
9.7364498559059598e+00 1.0552485885712292e+02 0
9.8440852801726351e+00 1.1180940089833683e+02 0
2.5097015214546047e+01 1.2556017988241649e+01 0
1.0406024578142308e+01 1.1857041129974112e+02 0
6.2546379280445308e+00 8.9152102624872896e+01 0
8.5423264434174371e+00 9.9044579315013436e+01 0
1.5834034908418559e+01 6.5369871977702346e+01 0
5.9784390426013118e+01 3.6730624949563264e+00 0
6.6076939606959115e+00 7.9182383536091095e+01 0

