# vtk DataFile Version 2.0

ASCII

DATASET UNSTRUCTURED_GRID

POINTS 79 float 

-5.0000000000000003e-02  0.0000000000000000e+00  0.0000000000000000e+00
-5.0000000000000003e-02  5.5555555555555552e-02  0.0000000000000000e+00
-5.0000000000000003e-02  2.7777777777777776e-02  0.0000000000000000e+00
5.0000000000000003e-02  0.0000000000000000e+00  0.0000000000000000e+00
5.0000000000000003e-02  5.5555555555555552e-02  0.0000000000000000e+00
5.0000000000000003e-02  2.7777777777777776e-02  0.0000000000000000e+00
-5.0000000000000003e-02  1.1111111111111110e-01  0.0000000000000000e+00
-5.0000000000000003e-02  8.3333333333333329e-02  0.0000000000000000e+00
5.0000000000000003e-02  1.1111111111111110e-01  0.0000000000000000e+00
5.0000000000000003e-02  8.3333333333333329e-02  0.0000000000000000e+00
-5.0000000000000003e-02  1.6666666666666666e-01  0.0000000000000000e+00
-5.0000000000000003e-02  1.3888888888888890e-01  0.0000000000000000e+00
5.0000000000000003e-02  1.6666666666666666e-01  0.0000000000000000e+00
5.0000000000000003e-02  1.3888888888888890e-01  0.0000000000000000e+00
-5.0000000000000003e-02  2.2222222222222221e-01  0.0000000000000000e+00
-5.0000000000000003e-02  1.9444444444444442e-01  0.0000000000000000e+00
5.0000000000000003e-02  2.2222222222222221e-01  0.0000000000000000e+00
5.0000000000000003e-02  1.9444444444444442e-01  0.0000000000000000e+00
-5.0000000000000003e-02  2.7777777777777779e-01  0.0000000000000000e+00
-5.0000000000000003e-02  2.5000000000000000e-01  0.0000000000000000e+00
5.0000000000000003e-02  2.7777777777777779e-01  0.0000000000000000e+00
5.0000000000000003e-02  2.5000000000000000e-01  0.0000000000000000e+00
-5.0000000000000003e-02  3.3333333333333331e-01  0.0000000000000000e+00
-5.0000000000000003e-02  3.0555555555555558e-01  0.0000000000000000e+00
5.0000000000000003e-02  3.3333333333333331e-01  0.0000000000000000e+00
5.0000000000000003e-02  3.0555555555555558e-01  0.0000000000000000e+00
-5.0000000000000003e-02  3.8888888888888884e-01  0.0000000000000000e+00
-5.0000000000000003e-02  3.6111111111111105e-01  0.0000000000000000e+00
5.0000000000000003e-02  3.8888888888888884e-01  0.0000000000000000e+00
5.0000000000000003e-02  3.6111111111111105e-01  0.0000000000000000e+00
-5.0000000000000003e-02  4.4444444444444442e-01  0.0000000000000000e+00
-5.0000000000000003e-02  4.1666666666666663e-01  0.0000000000000000e+00
5.0000000000000003e-02  4.4444444444444442e-01  0.0000000000000000e+00
5.0000000000000003e-02  4.1666666666666663e-01  0.0000000000000000e+00
-5.0000000000000003e-02  5.0000000000000000e-01  0.0000000000000000e+00
-5.0000000000000003e-02  4.7222222222222221e-01  0.0000000000000000e+00
5.0000000000000003e-02  5.0000000000000000e-01  0.0000000000000000e+00
5.0000000000000003e-02  4.7222222222222221e-01  0.0000000000000000e+00
-5.0000000000000003e-02  5.5555555555555558e-01  0.0000000000000000e+00
-5.0000000000000003e-02  5.2777777777777779e-01  0.0000000000000000e+00
5.0000000000000003e-02  5.5555555555555558e-01  0.0000000000000000e+00
5.0000000000000003e-02  5.2777777777777779e-01  0.0000000000000000e+00
-5.0000000000000003e-02  6.1111111111111105e-01  0.0000000000000000e+00
-5.0000000000000003e-02  5.8333333333333326e-01  0.0000000000000000e+00
5.0000000000000003e-02  6.1111111111111105e-01  0.0000000000000000e+00
5.0000000000000003e-02  5.8333333333333326e-01  0.0000000000000000e+00
-5.0000000000000003e-02  6.6666666666666663e-01  0.0000000000000000e+00
-5.0000000000000003e-02  6.3888888888888884e-01  0.0000000000000000e+00
5.0000000000000003e-02  6.6666666666666663e-01  0.0000000000000000e+00
5.0000000000000003e-02  6.3888888888888884e-01  0.0000000000000000e+00
-5.0000000000000003e-02  7.2222222222222221e-01  0.0000000000000000e+00
-5.0000000000000003e-02  6.9444444444444442e-01  0.0000000000000000e+00
5.0000000000000003e-02  7.2222222222222221e-01  0.0000000000000000e+00
5.0000000000000003e-02  6.9444444444444442e-01  0.0000000000000000e+00
-5.0000000000000003e-02  7.7777777777777768e-01  0.0000000000000000e+00
-5.0000000000000003e-02  7.5000000000000000e-01  0.0000000000000000e+00
5.0000000000000003e-02  7.7777777777777768e-01  0.0000000000000000e+00
5.0000000000000003e-02  7.5000000000000000e-01  0.0000000000000000e+00
-5.0000000000000003e-02  8.3333333333333326e-01  0.0000000000000000e+00
-5.0000000000000003e-02  8.0555555555555547e-01  0.0000000000000000e+00
5.0000000000000003e-02  8.3333333333333326e-01  0.0000000000000000e+00
5.0000000000000003e-02  8.0555555555555547e-01  0.0000000000000000e+00
-5.0000000000000003e-02  8.8888888888888884e-01  0.0000000000000000e+00
-5.0000000000000003e-02  8.6111111111111105e-01  0.0000000000000000e+00
5.0000000000000003e-02  8.8888888888888884e-01  0.0000000000000000e+00
5.0000000000000003e-02  8.6111111111111105e-01  0.0000000000000000e+00
-5.0000000000000003e-02  9.4444444444444442e-01  0.0000000000000000e+00
-5.0000000000000003e-02  9.1666666666666663e-01  0.0000000000000000e+00
5.0000000000000003e-02  9.4444444444444442e-01  0.0000000000000000e+00
5.0000000000000003e-02  9.1666666666666663e-01  0.0000000000000000e+00
-5.0000000000000003e-02  1.0000000000000000e+00  0.0000000000000000e+00
-1.6666666666666670e-02  1.0000000000000000e+00  0.0000000000000000e+00
-5.0000000000000003e-02  9.7222222222222221e-01  0.0000000000000000e+00
-3.3333333333333340e-02  1.0000000000000000e+00  0.0000000000000000e+00
1.6666666666666663e-02  1.0000000000000000e+00  0.0000000000000000e+00
-3.4694469519536142e-18  1.0000000000000000e+00  0.0000000000000000e+00
5.0000000000000003e-02  1.0000000000000000e+00  0.0000000000000000e+00
5.0000000000000003e-02  9.7222222222222221e-01  0.0000000000000000e+00
3.3333333333333333e-02  1.0000000000000000e+00  0.0000000000000000e+00

CELLS 0 0


CELL_TYPES 0


POINT_DATA 79

VECTORS VertexNormals float

0.0000000000000000e+00 0.0000000000000000e+00 0
0.0000000000000000e+00 0.0000000000000000e+00 0
0.0000000000000000e+00 0.0000000000000000e+00 0
0.0000000000000000e+00 0.0000000000000000e+00 0
0.0000000000000000e+00 0.0000000000000000e+00 0
0.0000000000000000e+00 0.0000000000000000e+00 0
0.0000000000000000e+00 0.0000000000000000e+00 0
0.0000000000000000e+00 0.0000000000000000e+00 0
0.0000000000000000e+00 0.0000000000000000e+00 0
0.0000000000000000e+00 0.0000000000000000e+00 0
0.0000000000000000e+00 0.0000000000000000e+00 0
0.0000000000000000e+00 0.0000000000000000e+00 0
0.0000000000000000e+00 0.0000000000000000e+00 0
0.0000000000000000e+00 0.0000000000000000e+00 0
0.0000000000000000e+00 0.0000000000000000e+00 0
0.0000000000000000e+00 0.0000000000000000e+00 0
0.0000000000000000e+00 0.0000000000000000e+00 0
0.0000000000000000e+00 0.0000000000000000e+00 0
0.0000000000000000e+00 0.0000000000000000e+00 0
0.0000000000000000e+00 0.0000000000000000e+00 0
0.0000000000000000e+00 0.0000000000000000e+00 0
0.0000000000000000e+00 0.0000000000000000e+00 0
0.0000000000000000e+00 0.0000000000000000e+00 0
0.0000000000000000e+00 0.0000000000000000e+00 0
0.0000000000000000e+00 0.0000000000000000e+00 0
0.0000000000000000e+00 0.0000000000000000e+00 0
0.0000000000000000e+00 0.0000000000000000e+00 0
0.0000000000000000e+00 0.0000000000000000e+00 0
0.0000000000000000e+00 0.0000000000000000e+00 0
0.0000000000000000e+00 0.0000000000000000e+00 0
0.0000000000000000e+00 0.0000000000000000e+00 0
0.0000000000000000e+00 0.0000000000000000e+00 0
0.0000000000000000e+00 0.0000000000000000e+00 0
0.0000000000000000e+00 0.0000000000000000e+00 0
0.0000000000000000e+00 0.0000000000000000e+00 0
0.0000000000000000e+00 0.0000000000000000e+00 0
0.0000000000000000e+00 0.0000000000000000e+00 0
0.0000000000000000e+00 0.0000000000000000e+00 0
0.0000000000000000e+00 0.0000000000000000e+00 0
0.0000000000000000e+00 0.0000000000000000e+00 0
0.0000000000000000e+00 0.0000000000000000e+00 0
0.0000000000000000e+00 0.0000000000000000e+00 0
0.0000000000000000e+00 0.0000000000000000e+00 0
0.0000000000000000e+00 0.0000000000000000e+00 0
0.0000000000000000e+00 0.0000000000000000e+00 0
0.0000000000000000e+00 0.0000000000000000e+00 0
0.0000000000000000e+00 0.0000000000000000e+00 0
0.0000000000000000e+00 0.0000000000000000e+00 0
0.0000000000000000e+00 0.0000000000000000e+00 0
0.0000000000000000e+00 0.0000000000000000e+00 0
0.0000000000000000e+00 0.0000000000000000e+00 0
0.0000000000000000e+00 0.0000000000000000e+00 0
0.0000000000000000e+00 0.0000000000000000e+00 0
0.0000000000000000e+00 0.0000000000000000e+00 0
0.0000000000000000e+00 0.0000000000000000e+00 0
0.0000000000000000e+00 0.0000000000000000e+00 0
0.0000000000000000e+00 0.0000000000000000e+00 0
0.0000000000000000e+00 0.0000000000000000e+00 0
0.0000000000000000e+00 0.0000000000000000e+00 0
0.0000000000000000e+00 0.0000000000000000e+00 0
0.0000000000000000e+00 0.0000000000000000e+00 0
0.0000000000000000e+00 0.0000000000000000e+00 0
0.0000000000000000e+00 0.0000000000000000e+00 0
0.0000000000000000e+00 0.0000000000000000e+00 0
0.0000000000000000e+00 0.0000000000000000e+00 0
0.0000000000000000e+00 0.0000000000000000e+00 0
0.0000000000000000e+00 0.0000000000000000e+00 0
0.0000000000000000e+00 0.0000000000000000e+00 0
0.0000000000000000e+00 0.0000000000000000e+00 0
0.0000000000000000e+00 0.0000000000000000e+00 0
0.0000000000000000e+00 0.0000000000000000e+00 0
0.0000000000000000e+00 0.0000000000000000e+00 0
0.0000000000000000e+00 0.0000000000000000e+00 0
0.0000000000000000e+00 0.0000000000000000e+00 0
0.0000000000000000e+00 0.0000000000000000e+00 0
0.0000000000000000e+00 0.0000000000000000e+00 0
0.0000000000000000e+00 0.0000000000000000e+00 0
0.0000000000000000e+00 0.0000000000000000e+00 0
0.0000000000000000e+00 0.0000000000000000e+00 0

VECTORS Displacement float
0.0000000000000000e+00 0.0000000000000000e+00 0
2.4221581420448834e-03 3.1802012518753029e-03 0
1.0055045550295305e-03 1.6367552600888651e-03 0
0.0000000000000000e+00 0.0000000000000000e+00 0
2.4780690186332411e-03 -3.1961856917770751e-03 0
1.0609154985189886e-03 -1.6636220835987391e-03 0
7.7388869328883477e-03 6.0797951456887499e-03 0
4.7172484309817748e-03 4.6427317472759726e-03 0
7.6286353178044025e-03 -6.2191017619973935e-03 0
4.6685640494617976e-03 -4.6893056044123556e-03 0
1.6213563725880103e-02 9.1514895417984504e-03 0
1.1520186854300091e-02 7.6046053671847769e-03 0
1.6247292461612318e-02 -9.3823911923751890e-03 0
1.1485613088924967e-02 -7.8198917080472812e-03 0
2.8402888550914843e-02 1.1976836296288110e-02 0
2.1911166277412304e-02 1.0617016776228901e-02 0
2.8295098924150181e-02 -1.2268520616803502e-02 0
2.1873366156524871e-02 -1.0860250053951635e-02 0
4.3432709512369383e-02 1.4571689936401913e-02 0
3.5558031397167483e-02 1.3283461046435605e-02 0
4.3437308983912168e-02 -1.4940581649174552e-02 0
3.5492087446813779e-02 -1.3634530132653930e-02 0
6.1385515782692988e-02 1.6997025779512308e-02 0
5.2052333816609862e-02 1.5818765260598409e-02 0
6.1286742546487638e-02 -1.7379085989610122e-02 0
5.2047767067481127e-02 -1.6171450017538488e-02 0
8.1924687185317341e-02 1.9127009594603960e-02 0
7.1372449676095504e-02 1.8085577135601834e-02 0
8.1886121435667453e-02 -1.9744798366490880e-02 0
7.1259996579455337e-02 -1.8581436315062878e-02 0
1.0498165237461958e-01 2.1063968229669827e-02 0
9.3114972204829227e-02 2.0135898197329978e-02 0
1.0491047771705092e-01 -2.1830260812624212e-02 0
9.3099728476337032e-02 -2.0827786235589819e-02 0
1.3006409366213900e-01 2.2577880776597763e-02 0
1.1732881662874822e-01 2.1863685196276406e-02 0
1.3002868537557030e-01 -2.3504369825932226e-02 0
1.1722043784461426e-01 -2.2729394309563222e-02 0
1.5659621201198326e-01 2.3743795162521474e-02 0
1.4316623079440777e-01 2.3205209665091767e-02 0
1.5658187026183396e-01 -2.4658206367553379e-02 0
1.4320982466044255e-01 -2.4116099949121866e-02 0
1.8426739050765090e-01 2.4540044452796627e-02 0
1.7032899626329695e-01 2.4177125476279253e-02 0
1.8415211214080532e-01 -2.5701148742689986e-02 0
1.7021277188846093e-01 -2.5197692002234151e-02 0
2.1265762797893428e-01 2.5197891702834332e-02 0
1.9835378216460287e-01 2.4874904700052450e-02 0
2.1263149497320880e-01 -2.6497731861502501e-02 0
1.9831188361059038e-01 -2.6131327076155328e-02 0
2.4179210857317301e-01 2.5724419535206870e-02 0
2.2716741852168254e-01 2.5475980497730644e-02 0
2.4173146764347131e-01 -2.7098257554419164e-02 0
2.2709117443532917e-01 -2.6810756478040043e-02 0
2.7145006223258450e-01 2.6210429750816173e-02 0
2.5653359324687564e-01 2.5983497240197981e-02 0
2.7146949471953530e-01 -2.7552861763101268e-02 0
2.5655159942782846e-01 -2.7344151587446814e-02 0
3.0164600091671651e-01 2.6303991981394489e-02 0
2.8653656233069286e-01 2.6316950877066390e-02 0
3.0156487631364309e-01 -2.7818531414180038e-02 0
2.8648287613874096e-01 -2.7712622470630454e-02 0
3.3167390703346622e-01 2.6182389815784871e-02 0
3.1668188659821678e-01 2.6236946109848142e-02 0
3.3172674625733289e-01 -2.7852703430458887e-02 0
3.1666847472980375e-01 -2.7865389713112879e-02 0
3.6163510979408608e-01 2.6177574604511686e-02 0
3.4665426097599317e-01 2.6161721441520784e-02 0
3.6162180603648458e-01 -2.7819615967436671e-02 0
3.4667911849798055e-01 -2.7828615920625493e-02 0
3.9171244827992802e-01 2.6252876072555262e-02 0
3.9167032119129680e-01 8.1832286538960214e-03 0
3.7665284764535045e-01 2.6222835784138771e-02 0
3.9169819555878593e-01 1.7215086313706829e-02 0
3.9161577204517445e-01 -9.8490187541710184e-03 0
3.9163760806001702e-01 -8.4339133551020824e-04 0
3.9161467187223348e-01 -2.7799880995980818e-02 0
3.7662733095607637e-01 -2.7809501300193953e-02 0
3.9161291887834759e-01 -1.8822714272462092e-02 0

VECTORS Stress float
2.0973698067712763e+02 -9.2647579196451488e+00 0
2.1094380623393329e+02 -1.3145008976877762e+01 0
2.1088045162424436e+02 -9.3815173728644368e+00 0
-9.0651323730611580e+01 7.9417778881072536e+00 0
-9.4039831679503322e+01 6.0896508698072012e+00 0
-9.3391746831260775e+01 5.0787661296949409e+00 0
2.0995829810446662e+02 -2.4757740953972188e+01 0
2.1055552916653107e+02 -1.8747174170316839e+01 0
-9.3199101439529841e+01 1.2225107941815622e+01 0
-9.3680251249384355e+01 9.0249907004124452e+00 0
2.0800880680060550e+02 -3.6818969122676663e+01 0
2.0906201003158367e+02 -3.0891312169741468e+01 0
-9.2596384726604811e+01 1.8296554852812278e+01 0
-9.2818744543753837e+01 1.5352905072372323e+01 0
2.0445775345162201e+02 -4.7623592858797565e+01 0
2.0633646160594935e+02 -4.2369822144072259e+01 0
-9.1734629898870480e+01 2.3687012624861381e+01 0
-9.2108720201253618e+01 2.1045564568302325e+01 0
1.9959983126761745e+02 -5.6725078988659789e+01 0
2.0217897031531561e+02 -5.2380482292043780e+01 0
-9.0829993153376336e+01 2.8246905886746845e+01 0
-9.1289344193809029e+01 2.6047200115523083e+01 0
1.9375147241808168e+02 -6.4254114661246604e+01 0
1.9684995315098899e+02 -6.0733503103378553e+01 0
-8.9798770045343645e+01 3.2487662717425792e+01 0
-9.0408075757021152e+01 3.0429568306377860e+01 0
1.8709984947920952e+02 -7.0643738498602488e+01 0
1.9056978038198008e+02 -6.7625078134992236e+01 0
-8.8678527050125012e+01 3.6291796941530265e+01 0
-8.9280205572599925e+01 3.4572611630871506e+01 0
1.8010757087293291e+02 -7.5699878952273139e+01 0
1.8356176351127920e+02 -7.3452844506193287e+01 0
-8.7551256404863125e+01 3.9333926278676699e+01 0
-8.8106308411528744e+01 3.7915520194048895e+01 0
1.7351552817346942e+02 -7.8563726437883361e+01 0
1.7675808789087409e+02 -7.7235722625631297e+01 0
-8.6443610663312484e+01 4.1496734164418740e+01 0
-8.6968781597221778e+01 4.0443858393224218e+01 0
1.6718282479003324e+02 -8.0042321173076289e+01 0
1.7029433687506094e+02 -7.9374107978492248e+01 0
-8.5420108454625051e+01 4.2472499272529149e+01 0
-8.5926852976098417e+01 4.1987538659978782e+01 0
1.6137550483316841e+02 -8.0046921822741751e+01 0
1.6422168046824208e+02 -8.0217704809313545e+01 0
-8.4106872277843649e+01 4.3182992796984763e+01 0
-8.4806345549406842e+01 4.2844600681930842e+01 0
1.5555049885744404e+02 -7.9305533511929752e+01 0
1.5852635149482933e+02 -7.9794307848023891e+01 0
-8.2606581923120189e+01 4.3462878605947935e+01 0
-8.3383195183676321e+01 4.3489188353465579e+01 0
1.4931639320263616e+02 -7.8038810192991150e+01 0
1.5250514080260155e+02 -7.8842759409316386e+01 0
-8.0924287600446746e+01 4.3321416353525137e+01 0
-8.1826746249346343e+01 4.3485811724147652e+01 0
1.4278522538406366e+02 -7.6101072136238827e+01 0
1.4603855719704700e+02 -7.7140131803303575e+01 0
-7.8983479503796218e+01 4.3072797437664349e+01 0
-7.9972206749555767e+01 4.3188013464716050e+01 0
1.3554018741700099e+02 -7.3272275168325223e+01 0
1.3945950020932247e+02 -7.4807856649676069e+01 0
-7.6872600400499891e+01 4.2059004307063333e+01 0
-7.7947353116319164e+01 4.2804494631013426e+01 0
1.2631757426354110e+02 -6.8354415377400869e+01 0
1.3040142522591310e+02 -7.0790201029581340e+01 0
-7.4447685439977917e+01 3.8939255602510286e+01 0
-7.5619422245757477e+01 3.9804596420271878e+01 0
1.3092244435643747e+02 -6.6807627437631481e+01 0
1.2966963304577553e+02 -6.7603587772209494e+01 0
-7.4439597106902028e+01 5.1964046120149838e+01 0
-7.4204085066577747e+01 4.5892825496167632e+01 0
2.7119344394175357e+01 -3.1533313719805733e+01 0
-2.1763307293329092e+01 -2.7567621857613744e+01 0
9.9719298437161541e+01 -5.5446378626102160e+01 0
-1.0725897205100011e+01 -1.9937281374453903e+01 0
-2.3018173481980284e+01 -5.3683299659892697e+01 0
-2.2630950225702165e+01 -4.1588091756065296e+01 0
-5.6956355874316735e+01 -3.4957398389852301e+01 0
-6.8567576210918546e+01 2.8224365368507044e+01 0
-3.0462909847490153e+01 -5.6237328297125430e+01 0

