# vtk DataFile Version 2.0

ASCII

DATASET UNSTRUCTURED_GRID

POINTS 79 float 

-5.0000000000000003e-02  0.0000000000000000e+00  0.0000000000000000e+00
-5.0000000000000003e-02  5.5555555555555552e-02  0.0000000000000000e+00
-5.0000000000000003e-02  2.7777777777777776e-02  0.0000000000000000e+00
5.0000000000000003e-02  0.0000000000000000e+00  0.0000000000000000e+00
5.0000000000000003e-02  5.5555555555555552e-02  0.0000000000000000e+00
5.0000000000000003e-02  2.7777777777777776e-02  0.0000000000000000e+00
-5.0000000000000003e-02  1.1111111111111110e-01  0.0000000000000000e+00
-5.0000000000000003e-02  8.3333333333333329e-02  0.0000000000000000e+00
5.0000000000000003e-02  1.1111111111111110e-01  0.0000000000000000e+00
5.0000000000000003e-02  8.3333333333333329e-02  0.0000000000000000e+00
-5.0000000000000003e-02  1.6666666666666666e-01  0.0000000000000000e+00
-5.0000000000000003e-02  1.3888888888888890e-01  0.0000000000000000e+00
5.0000000000000003e-02  1.6666666666666666e-01  0.0000000000000000e+00
5.0000000000000003e-02  1.3888888888888890e-01  0.0000000000000000e+00
-5.0000000000000003e-02  2.2222222222222221e-01  0.0000000000000000e+00
-5.0000000000000003e-02  1.9444444444444442e-01  0.0000000000000000e+00
5.0000000000000003e-02  2.2222222222222221e-01  0.0000000000000000e+00
5.0000000000000003e-02  1.9444444444444442e-01  0.0000000000000000e+00
-5.0000000000000003e-02  2.7777777777777779e-01  0.0000000000000000e+00
-5.0000000000000003e-02  2.5000000000000000e-01  0.0000000000000000e+00
5.0000000000000003e-02  2.7777777777777779e-01  0.0000000000000000e+00
5.0000000000000003e-02  2.5000000000000000e-01  0.0000000000000000e+00
-5.0000000000000003e-02  3.3333333333333331e-01  0.0000000000000000e+00
-5.0000000000000003e-02  3.0555555555555558e-01  0.0000000000000000e+00
5.0000000000000003e-02  3.3333333333333331e-01  0.0000000000000000e+00
5.0000000000000003e-02  3.0555555555555558e-01  0.0000000000000000e+00
-5.0000000000000003e-02  3.8888888888888884e-01  0.0000000000000000e+00
-5.0000000000000003e-02  3.6111111111111105e-01  0.0000000000000000e+00
5.0000000000000003e-02  3.8888888888888884e-01  0.0000000000000000e+00
5.0000000000000003e-02  3.6111111111111105e-01  0.0000000000000000e+00
-5.0000000000000003e-02  4.4444444444444442e-01  0.0000000000000000e+00
-5.0000000000000003e-02  4.1666666666666663e-01  0.0000000000000000e+00
5.0000000000000003e-02  4.4444444444444442e-01  0.0000000000000000e+00
5.0000000000000003e-02  4.1666666666666663e-01  0.0000000000000000e+00
-5.0000000000000003e-02  5.0000000000000000e-01  0.0000000000000000e+00
-5.0000000000000003e-02  4.7222222222222221e-01  0.0000000000000000e+00
5.0000000000000003e-02  5.0000000000000000e-01  0.0000000000000000e+00
5.0000000000000003e-02  4.7222222222222221e-01  0.0000000000000000e+00
-5.0000000000000003e-02  5.5555555555555558e-01  0.0000000000000000e+00
-5.0000000000000003e-02  5.2777777777777779e-01  0.0000000000000000e+00
5.0000000000000003e-02  5.5555555555555558e-01  0.0000000000000000e+00
5.0000000000000003e-02  5.2777777777777779e-01  0.0000000000000000e+00
-5.0000000000000003e-02  6.1111111111111105e-01  0.0000000000000000e+00
-5.0000000000000003e-02  5.8333333333333326e-01  0.0000000000000000e+00
5.0000000000000003e-02  6.1111111111111105e-01  0.0000000000000000e+00
5.0000000000000003e-02  5.8333333333333326e-01  0.0000000000000000e+00
-5.0000000000000003e-02  6.6666666666666663e-01  0.0000000000000000e+00
-5.0000000000000003e-02  6.3888888888888884e-01  0.0000000000000000e+00
5.0000000000000003e-02  6.6666666666666663e-01  0.0000000000000000e+00
5.0000000000000003e-02  6.3888888888888884e-01  0.0000000000000000e+00
-5.0000000000000003e-02  7.2222222222222221e-01  0.0000000000000000e+00
-5.0000000000000003e-02  6.9444444444444442e-01  0.0000000000000000e+00
5.0000000000000003e-02  7.2222222222222221e-01  0.0000000000000000e+00
5.0000000000000003e-02  6.9444444444444442e-01  0.0000000000000000e+00
-5.0000000000000003e-02  7.7777777777777768e-01  0.0000000000000000e+00
-5.0000000000000003e-02  7.5000000000000000e-01  0.0000000000000000e+00
5.0000000000000003e-02  7.7777777777777768e-01  0.0000000000000000e+00
5.0000000000000003e-02  7.5000000000000000e-01  0.0000000000000000e+00
-5.0000000000000003e-02  8.3333333333333326e-01  0.0000000000000000e+00
-5.0000000000000003e-02  8.0555555555555547e-01  0.0000000000000000e+00
5.0000000000000003e-02  8.3333333333333326e-01  0.0000000000000000e+00
5.0000000000000003e-02  8.0555555555555547e-01  0.0000000000000000e+00
-5.0000000000000003e-02  8.8888888888888884e-01  0.0000000000000000e+00
-5.0000000000000003e-02  8.6111111111111105e-01  0.0000000000000000e+00
5.0000000000000003e-02  8.8888888888888884e-01  0.0000000000000000e+00
5.0000000000000003e-02  8.6111111111111105e-01  0.0000000000000000e+00
-5.0000000000000003e-02  9.4444444444444442e-01  0.0000000000000000e+00
-5.0000000000000003e-02  9.1666666666666663e-01  0.0000000000000000e+00
5.0000000000000003e-02  9.4444444444444442e-01  0.0000000000000000e+00
5.0000000000000003e-02  9.1666666666666663e-01  0.0000000000000000e+00
-5.0000000000000003e-02  1.0000000000000000e+00  0.0000000000000000e+00
-1.6666666666666670e-02  1.0000000000000000e+00  0.0000000000000000e+00
-5.0000000000000003e-02  9.7222222222222221e-01  0.0000000000000000e+00
-3.3333333333333340e-02  1.0000000000000000e+00  0.0000000000000000e+00
1.6666666666666663e-02  1.0000000000000000e+00  0.0000000000000000e+00
-3.4694469519536142e-18  1.0000000000000000e+00  0.0000000000000000e+00
5.0000000000000003e-02  1.0000000000000000e+00  0.0000000000000000e+00
5.0000000000000003e-02  9.7222222222222221e-01  0.0000000000000000e+00
3.3333333333333333e-02  1.0000000000000000e+00  0.0000000000000000e+00

CELLS 0 0


CELL_TYPES 0


POINT_DATA 79

VECTORS VertexNormals float

0.0000000000000000e+00 0.0000000000000000e+00 0
0.0000000000000000e+00 0.0000000000000000e+00 0
0.0000000000000000e+00 0.0000000000000000e+00 0
0.0000000000000000e+00 0.0000000000000000e+00 0
0.0000000000000000e+00 0.0000000000000000e+00 0
0.0000000000000000e+00 0.0000000000000000e+00 0
0.0000000000000000e+00 0.0000000000000000e+00 0
0.0000000000000000e+00 0.0000000000000000e+00 0
0.0000000000000000e+00 0.0000000000000000e+00 0
0.0000000000000000e+00 0.0000000000000000e+00 0
0.0000000000000000e+00 0.0000000000000000e+00 0
0.0000000000000000e+00 0.0000000000000000e+00 0
0.0000000000000000e+00 0.0000000000000000e+00 0
0.0000000000000000e+00 0.0000000000000000e+00 0
0.0000000000000000e+00 0.0000000000000000e+00 0
0.0000000000000000e+00 0.0000000000000000e+00 0
0.0000000000000000e+00 0.0000000000000000e+00 0
0.0000000000000000e+00 0.0000000000000000e+00 0
0.0000000000000000e+00 0.0000000000000000e+00 0
0.0000000000000000e+00 0.0000000000000000e+00 0
0.0000000000000000e+00 0.0000000000000000e+00 0
0.0000000000000000e+00 0.0000000000000000e+00 0
0.0000000000000000e+00 0.0000000000000000e+00 0
0.0000000000000000e+00 0.0000000000000000e+00 0
0.0000000000000000e+00 0.0000000000000000e+00 0
0.0000000000000000e+00 0.0000000000000000e+00 0
0.0000000000000000e+00 0.0000000000000000e+00 0
0.0000000000000000e+00 0.0000000000000000e+00 0
0.0000000000000000e+00 0.0000000000000000e+00 0
0.0000000000000000e+00 0.0000000000000000e+00 0
0.0000000000000000e+00 0.0000000000000000e+00 0
0.0000000000000000e+00 0.0000000000000000e+00 0
0.0000000000000000e+00 0.0000000000000000e+00 0
0.0000000000000000e+00 0.0000000000000000e+00 0
0.0000000000000000e+00 0.0000000000000000e+00 0
0.0000000000000000e+00 0.0000000000000000e+00 0
0.0000000000000000e+00 0.0000000000000000e+00 0
0.0000000000000000e+00 0.0000000000000000e+00 0
0.0000000000000000e+00 0.0000000000000000e+00 0
0.0000000000000000e+00 0.0000000000000000e+00 0
0.0000000000000000e+00 0.0000000000000000e+00 0
0.0000000000000000e+00 0.0000000000000000e+00 0
0.0000000000000000e+00 0.0000000000000000e+00 0
0.0000000000000000e+00 0.0000000000000000e+00 0
0.0000000000000000e+00 0.0000000000000000e+00 0
0.0000000000000000e+00 0.0000000000000000e+00 0
0.0000000000000000e+00 0.0000000000000000e+00 0
0.0000000000000000e+00 0.0000000000000000e+00 0
0.0000000000000000e+00 0.0000000000000000e+00 0
0.0000000000000000e+00 0.0000000000000000e+00 0
0.0000000000000000e+00 0.0000000000000000e+00 0
0.0000000000000000e+00 0.0000000000000000e+00 0
0.0000000000000000e+00 0.0000000000000000e+00 0
0.0000000000000000e+00 0.0000000000000000e+00 0
0.0000000000000000e+00 0.0000000000000000e+00 0
0.0000000000000000e+00 0.0000000000000000e+00 0
0.0000000000000000e+00 0.0000000000000000e+00 0
0.0000000000000000e+00 0.0000000000000000e+00 0
0.0000000000000000e+00 0.0000000000000000e+00 0
0.0000000000000000e+00 0.0000000000000000e+00 0
0.0000000000000000e+00 0.0000000000000000e+00 0
0.0000000000000000e+00 0.0000000000000000e+00 0
0.0000000000000000e+00 0.0000000000000000e+00 0
0.0000000000000000e+00 0.0000000000000000e+00 0
0.0000000000000000e+00 0.0000000000000000e+00 0
0.0000000000000000e+00 0.0000000000000000e+00 0
0.0000000000000000e+00 0.0000000000000000e+00 0
0.0000000000000000e+00 0.0000000000000000e+00 0
0.0000000000000000e+00 0.0000000000000000e+00 0
0.0000000000000000e+00 0.0000000000000000e+00 0
0.0000000000000000e+00 0.0000000000000000e+00 0
0.0000000000000000e+00 0.0000000000000000e+00 0
0.0000000000000000e+00 0.0000000000000000e+00 0
0.0000000000000000e+00 0.0000000000000000e+00 0
0.0000000000000000e+00 0.0000000000000000e+00 0
0.0000000000000000e+00 0.0000000000000000e+00 0
0.0000000000000000e+00 0.0000000000000000e+00 0
0.0000000000000000e+00 0.0000000000000000e+00 0
0.0000000000000000e+00 0.0000000000000000e+00 0

VECTORS Displacement float
0.0000000000000000e+00 0.0000000000000000e+00 0
1.9023941772507444e-03 2.1455795776298128e-03 0
8.4358427314792602e-04 1.1384193435725349e-03 0
0.0000000000000000e+00 0.0000000000000000e+00 0
1.8201180507804119e-03 -2.1573936952328718e-03 0
8.1375167763072587e-04 -1.1246187505781291e-03 0
5.4892413736894168e-03 4.0397773993323168e-03 0
3.4793050241975010e-03 3.1129893710701924e-03 0
5.4687805038064015e-03 -4.1753661920304339e-03 0
3.4084197410889083e-03 -3.1945972876496849e-03 0
1.1233133052821767e-02 5.8287300548273621e-03 0
8.0706155340817057e-03 4.9554443165779260e-03 0
1.1166634792777713e-02 -6.0105603248387452e-03 0
8.0551965631614382e-03 -5.1155567772898543e-03 0
1.8873775736202400e-02 7.3114768604526335e-03 0
1.4861322657615391e-02 6.6157601623920625e-03 0
1.8844623589340727e-02 -7.5681336418597514e-03 0
1.4786532043900763e-02 -6.8393603936526149e-03 0
2.7929707933660911e-02 8.5427187661426228e-03 0
2.3250519036271858e-02 7.9283902538779556e-03 0
2.7861261934048212e-02 -8.7890720170231695e-03 0
2.3238190827447221e-02 -8.1796756455637526e-03 0
3.8437813443475910e-02 9.7542588626327777e-03 0
3.2998513474165374e-02 9.1699306266461236e-03 0
3.8317945466899754e-02 -1.0017134192833479e-02 0
3.2870047387574250e-02 -9.4334312794327468e-03 0
5.0169512003561179e-02 1.0670535958833102e-02 0
4.4148364378103336e-02 1.0262292490702242e-02 0
5.0041632079392717e-02 -1.0903650116429050e-02 0
4.4055181147073630e-02 -1.0494986402023843e-02 0
6.2669704438455903e-02 1.1192420223335680e-02 0
5.6378222509096167e-02 1.0953062976363375e-02 0
6.2616341625221783e-02 -1.1536956344957095e-02 0
5.6243499574622255e-02 -1.1250045089001709e-02 0
7.5677413006844885e-02 1.1637494893118916e-02 0
6.9095252979519295e-02 1.1427911929056612e-02 0
7.5611867132710953e-02 -1.1955626411324678e-02 0
6.9087284933210591e-02 -1.1752421310475738e-02 0
8.9108289100748056e-02 1.1925844045144228e-02 0
8.2368089774086398e-02 1.1796402856518050e-02 0
8.9067048486849057e-02 -1.2404878835541873e-02 0
8.2257206470748537e-02 -1.2189181433119128e-02 0
1.0283985472338551e-01 1.2119336875484549e-02 0
9.5920295029895075e-02 1.2041040582557321e-02 0
1.0280026977124082e-01 -1.2654923456227596e-02 0
9.5949206600668857e-02 -1.2544603363310539e-02 0
1.1674991652421360e-01 1.2082676867509036e-02 0
1.0981863607095604e-01 1.2124943408860951e-02 0
1.1665541061313936e-01 -1.2856747739269314e-02 0
1.0967834948912528e-01 -1.2774958781118669e-02 0
1.3055112296563950e-01 1.1996827861161368e-02 0
1.2363623793692342e-01 1.2041409497697751e-02 0
1.3053809305673408e-01 -1.2836130954343262e-02 0
1.2364044062958141e-01 -1.2861395959875996e-02 0
1.4430763683319064e-01 1.1791399838772606e-02 0
1.3745517297907714e-01 1.1907442944220688e-02 0
1.4426090239907075e-01 -1.2752893592121704e-02 0
1.3739263306930899e-01 -1.2809012874938484e-02 0
1.5792478206419286e-01 1.1506161968465014e-02 0
1.5112000678956489e-01 1.1670181059583480e-02 0
1.5786721918238211e-01 -1.2480346327517076e-02 0
1.5110587483515631e-01 -1.2643901698230651e-02 0
1.7107038928813925e-01 1.0953564950665025e-02 0
1.6462896693281243e-01 1.1243794547035117e-02 0
1.7093543238651043e-01 -1.2020501585890655e-02 0
1.6448945452167912e-01 -1.2250716641056352e-02 0
1.8344951277547855e-01 1.0613289942664795e-02 0
1.7730848864701035e-01 1.0741178818435719e-02 0
1.8341193913877474e-01 -1.1655505448653871e-02 0
1.7724270565285619e-01 -1.1821311845655026e-02 0
1.9566664474908896e-01 1.0564987225889864e-02 0
1.9566435193429180e-01 3.1926661738265979e-03 0
1.8955208671932378e-01 1.0568815591391618e-02 0
1.9566778867378154e-01 6.8853068617099472e-03 0
1.9559495482468997e-01 -4.1939930197324414e-03 0
1.9564262043469333e-01 -5.0430463283811602e-04 0
1.9550631313492181e-01 -1.1523745062128044e-02 0
1.8946046825105037e-01 -1.1565213161664863e-02 0
1.9553690473633456e-01 -7.8736893117221478e-03 0

VECTORS Stress float
1.3313702477310608e+02 -4.7455624268358960e+00 0
1.3400065837877364e+02 -6.0383199654242503e+00 0
1.3383504734476594e+02 -4.6704446347897317e+00 0
6.6785001232149739e+00 -1.6775079127751980e-01 0
4.4655524474399613e+00 -1.5534382280037562e-01 0
4.9876790375128905e+00 -1.6356715814586664e-01 0
1.3389653401553574e+02 -1.0801969329793906e+01 0
1.3397738896125645e+02 -8.2752691104855103e+00 0
4.6151575813282761e+00 -3.9495959913745082e-01 0
4.5090251969173778e+00 -2.4721639962609743e-01 0
1.3353738126044721e+02 -1.5777513453614233e+01 0
1.3371754098376493e+02 -1.3369142844887392e+01 0
4.6583069265711856e+00 -5.4855816700796822e-01 0
4.6628958178796438e+00 -4.7816452266397391e-01 0
1.3265264137597728e+02 -1.9450444480611850e+01 0
1.3311350283975503e+02 -1.7719026986073914e+01 0
5.1052091272309781e+00 -7.4667972061990895e-01 0
4.8835657602776337e+00 -6.6711665738444026e-01 0
1.3108889334191667e+02 -2.2522437424517420e+01 0
1.3196158091445636e+02 -2.1030805795937567e+01 0
5.9640740347467727e+00 -1.0153947600279025e+00 0
5.4869697125169523e+00 -8.6959850116636517e-01 0
1.2876638776830544e+02 -2.5231770530039739e+01 0
1.3008344062527885e+02 -2.3948750784396225e+01 0
7.1719099650608769e+00 -1.4064323640941438e+00 0
6.4699671617254353e+00 -1.1684010961948843e+00 0
1.2587287255109106e+02 -2.7039095509278241e+01 0
1.2741064789031634e+02 -2.6366107220659160e+01 0
8.7388745111570643e+00 -1.8675341908872269e+00 0
7.8584604039000396e+00 -1.5903578038671640e+00 0
1.2255968327163646e+02 -2.7742482147167721e+01 0
1.2427730809953948e+02 -2.7458543100878387e+01 0
1.0686188468167984e+01 -2.3760563304301741e+00 0
9.6687639008094948e+00 -2.1179618544213099e+00 0
1.1870097844840700e+02 -2.7984903949863565e+01 0
1.2065747516066381e+02 -2.7904088233505490e+01 0
1.2955891585507402e+01 -2.9556912720267974e+00 0
1.1833998766921468e+01 -2.6874546732663021e+00 0
1.1430132524129135e+02 -2.7602370825735079e+01 0
1.1654456931389018e+02 -2.7827900325136852e+01 0
1.5367940296588358e+01 -3.6474856076279139e+00 0
1.4181539441147379e+01 -3.3256884563144240e+00 0
1.0923915501417093e+02 -2.6962252386367027e+01 0
1.1185656531413451e+02 -2.7315435252200700e+01 0
1.7857503067811876e+01 -4.3095406611547560e+00 0
1.6601708934706039e+01 -3.9869351405722000e+00 0
1.0370047839845796e+02 -2.5710361791624337e+01 0
1.0653305458948608e+02 -2.6469311284507512e+01 0
2.0367854343827275e+01 -4.9368653672063374e+00 0
1.9091178925134727e+01 -4.5939475293963596e+00 0
9.7550730072019633e+01 -2.3947717791171272e+01 0
1.0074060334682008e+02 -2.4861680066265649e+01 0
2.2862688168082286e+01 -5.4887488147156773e+00 0
2.1602875824286230e+01 -5.2016229369081657e+00 0
9.0406319721445470e+01 -2.2202457576522988e+01 0
9.4117741397724387e+01 -2.3019340190947332e+01 0
2.5294720994109866e+01 -6.0820896936475606e+00 0
2.4089097283165813e+01 -5.7435557305568068e+00 0
8.1824093138103706e+01 -1.9709979355526400e+01 0
8.6336766904233457e+01 -2.1348685747095260e+01 0
2.7351427542496566e+01 -6.3277769681851055e+00 0
2.6452338369270933e+01 -6.4466081808141098e+00 0
7.1062701038226948e+01 -1.4348463536063718e+01 0
7.6794003906096194e+01 -1.6351051865033241e+01 0
2.8421887521352303e+01 -5.3554307897537399e+00 0
2.7794856353881272e+01 -5.4001110938958163e+00 0
5.6079666020519582e+01 -2.5723276754627022e+01 0
6.4651223585134346e+01 -2.0965443309563625e+01 0
3.3071749866066213e+01 -1.3907139217516814e+01 0
3.1053564658462278e+01 -1.0347776182697757e+01 0
2.4903240952136457e+01 7.0975156196865214e+01 0
1.4928964825166865e+01 7.2813176016012676e+01 0
4.2612881697062292e+01 1.3466094137672542e+00 0
1.7938608730947053e+01 8.0423894755486288e+01 0
1.1401451711570466e+01 5.0617265417565989e+01 0
1.3355651022559364e+01 6.0201286892787891e+01 0
7.5243416587066392e+00 3.4873840801013500e+01 0
2.6669116921551250e+01 -1.0912397644084706e+00 0
9.2439481371875445e+00 4.2545002268349862e+01 0

