# vtk DataFile Version 2.0

ASCII

DATASET UNSTRUCTURED_GRID

POINTS 79 float 

-5.0000000000000003e-02  0.0000000000000000e+00  0.0000000000000000e+00
-5.0000000000000003e-02  5.5555555555555552e-02  0.0000000000000000e+00
-5.0000000000000003e-02  2.7777777777777776e-02  0.0000000000000000e+00
5.0000000000000003e-02  0.0000000000000000e+00  0.0000000000000000e+00
5.0000000000000003e-02  5.5555555555555552e-02  0.0000000000000000e+00
5.0000000000000003e-02  2.7777777777777776e-02  0.0000000000000000e+00
-5.0000000000000003e-02  1.1111111111111110e-01  0.0000000000000000e+00
-5.0000000000000003e-02  8.3333333333333329e-02  0.0000000000000000e+00
5.0000000000000003e-02  1.1111111111111110e-01  0.0000000000000000e+00
5.0000000000000003e-02  8.3333333333333329e-02  0.0000000000000000e+00
-5.0000000000000003e-02  1.6666666666666666e-01  0.0000000000000000e+00
-5.0000000000000003e-02  1.3888888888888890e-01  0.0000000000000000e+00
5.0000000000000003e-02  1.6666666666666666e-01  0.0000000000000000e+00
5.0000000000000003e-02  1.3888888888888890e-01  0.0000000000000000e+00
-5.0000000000000003e-02  2.2222222222222221e-01  0.0000000000000000e+00
-5.0000000000000003e-02  1.9444444444444442e-01  0.0000000000000000e+00
5.0000000000000003e-02  2.2222222222222221e-01  0.0000000000000000e+00
5.0000000000000003e-02  1.9444444444444442e-01  0.0000000000000000e+00
-5.0000000000000003e-02  2.7777777777777779e-01  0.0000000000000000e+00
-5.0000000000000003e-02  2.5000000000000000e-01  0.0000000000000000e+00
5.0000000000000003e-02  2.7777777777777779e-01  0.0000000000000000e+00
5.0000000000000003e-02  2.5000000000000000e-01  0.0000000000000000e+00
-5.0000000000000003e-02  3.3333333333333331e-01  0.0000000000000000e+00
-5.0000000000000003e-02  3.0555555555555558e-01  0.0000000000000000e+00
5.0000000000000003e-02  3.3333333333333331e-01  0.0000000000000000e+00
5.0000000000000003e-02  3.0555555555555558e-01  0.0000000000000000e+00
-5.0000000000000003e-02  3.8888888888888884e-01  0.0000000000000000e+00
-5.0000000000000003e-02  3.6111111111111105e-01  0.0000000000000000e+00
5.0000000000000003e-02  3.8888888888888884e-01  0.0000000000000000e+00
5.0000000000000003e-02  3.6111111111111105e-01  0.0000000000000000e+00
-5.0000000000000003e-02  4.4444444444444442e-01  0.0000000000000000e+00
-5.0000000000000003e-02  4.1666666666666663e-01  0.0000000000000000e+00
5.0000000000000003e-02  4.4444444444444442e-01  0.0000000000000000e+00
5.0000000000000003e-02  4.1666666666666663e-01  0.0000000000000000e+00
-5.0000000000000003e-02  5.0000000000000000e-01  0.0000000000000000e+00
-5.0000000000000003e-02  4.7222222222222221e-01  0.0000000000000000e+00
5.0000000000000003e-02  5.0000000000000000e-01  0.0000000000000000e+00
5.0000000000000003e-02  4.7222222222222221e-01  0.0000000000000000e+00
-5.0000000000000003e-02  5.5555555555555558e-01  0.0000000000000000e+00
-5.0000000000000003e-02  5.2777777777777779e-01  0.0000000000000000e+00
5.0000000000000003e-02  5.5555555555555558e-01  0.0000000000000000e+00
5.0000000000000003e-02  5.2777777777777779e-01  0.0000000000000000e+00
-5.0000000000000003e-02  6.1111111111111105e-01  0.0000000000000000e+00
-5.0000000000000003e-02  5.8333333333333326e-01  0.0000000000000000e+00
5.0000000000000003e-02  6.1111111111111105e-01  0.0000000000000000e+00
5.0000000000000003e-02  5.8333333333333326e-01  0.0000000000000000e+00
-5.0000000000000003e-02  6.6666666666666663e-01  0.0000000000000000e+00
-5.0000000000000003e-02  6.3888888888888884e-01  0.0000000000000000e+00
5.0000000000000003e-02  6.6666666666666663e-01  0.0000000000000000e+00
5.0000000000000003e-02  6.3888888888888884e-01  0.0000000000000000e+00
-5.0000000000000003e-02  7.2222222222222221e-01  0.0000000000000000e+00
-5.0000000000000003e-02  6.9444444444444442e-01  0.0000000000000000e+00
5.0000000000000003e-02  7.2222222222222221e-01  0.0000000000000000e+00
5.0000000000000003e-02  6.9444444444444442e-01  0.0000000000000000e+00
-5.0000000000000003e-02  7.7777777777777768e-01  0.0000000000000000e+00
-5.0000000000000003e-02  7.5000000000000000e-01  0.0000000000000000e+00
5.0000000000000003e-02  7.7777777777777768e-01  0.0000000000000000e+00
5.0000000000000003e-02  7.5000000000000000e-01  0.0000000000000000e+00
-5.0000000000000003e-02  8.3333333333333326e-01  0.0000000000000000e+00
-5.0000000000000003e-02  8.0555555555555547e-01  0.0000000000000000e+00
5.0000000000000003e-02  8.3333333333333326e-01  0.0000000000000000e+00
5.0000000000000003e-02  8.0555555555555547e-01  0.0000000000000000e+00
-5.0000000000000003e-02  8.8888888888888884e-01  0.0000000000000000e+00
-5.0000000000000003e-02  8.6111111111111105e-01  0.0000000000000000e+00
5.0000000000000003e-02  8.8888888888888884e-01  0.0000000000000000e+00
5.0000000000000003e-02  8.6111111111111105e-01  0.0000000000000000e+00
-5.0000000000000003e-02  9.4444444444444442e-01  0.0000000000000000e+00
-5.0000000000000003e-02  9.1666666666666663e-01  0.0000000000000000e+00
5.0000000000000003e-02  9.4444444444444442e-01  0.0000000000000000e+00
5.0000000000000003e-02  9.1666666666666663e-01  0.0000000000000000e+00
-5.0000000000000003e-02  1.0000000000000000e+00  0.0000000000000000e+00
-1.6666666666666670e-02  1.0000000000000000e+00  0.0000000000000000e+00
-5.0000000000000003e-02  9.7222222222222221e-01  0.0000000000000000e+00
-3.3333333333333340e-02  1.0000000000000000e+00  0.0000000000000000e+00
1.6666666666666663e-02  1.0000000000000000e+00  0.0000000000000000e+00
-3.4694469519536142e-18  1.0000000000000000e+00  0.0000000000000000e+00
5.0000000000000003e-02  1.0000000000000000e+00  0.0000000000000000e+00
5.0000000000000003e-02  9.7222222222222221e-01  0.0000000000000000e+00
3.3333333333333333e-02  1.0000000000000000e+00  0.0000000000000000e+00

CELLS 0 0


CELL_TYPES 0


POINT_DATA 79

VECTORS VertexNormals float

0.0000000000000000e+00 0.0000000000000000e+00 0
0.0000000000000000e+00 0.0000000000000000e+00 0
0.0000000000000000e+00 0.0000000000000000e+00 0
0.0000000000000000e+00 0.0000000000000000e+00 0
0.0000000000000000e+00 0.0000000000000000e+00 0
0.0000000000000000e+00 0.0000000000000000e+00 0
0.0000000000000000e+00 0.0000000000000000e+00 0
0.0000000000000000e+00 0.0000000000000000e+00 0
0.0000000000000000e+00 0.0000000000000000e+00 0
0.0000000000000000e+00 0.0000000000000000e+00 0
0.0000000000000000e+00 0.0000000000000000e+00 0
0.0000000000000000e+00 0.0000000000000000e+00 0
0.0000000000000000e+00 0.0000000000000000e+00 0
0.0000000000000000e+00 0.0000000000000000e+00 0
0.0000000000000000e+00 0.0000000000000000e+00 0
0.0000000000000000e+00 0.0000000000000000e+00 0
0.0000000000000000e+00 0.0000000000000000e+00 0
0.0000000000000000e+00 0.0000000000000000e+00 0
0.0000000000000000e+00 0.0000000000000000e+00 0
0.0000000000000000e+00 0.0000000000000000e+00 0
0.0000000000000000e+00 0.0000000000000000e+00 0
0.0000000000000000e+00 0.0000000000000000e+00 0
0.0000000000000000e+00 0.0000000000000000e+00 0
0.0000000000000000e+00 0.0000000000000000e+00 0
0.0000000000000000e+00 0.0000000000000000e+00 0
0.0000000000000000e+00 0.0000000000000000e+00 0
0.0000000000000000e+00 0.0000000000000000e+00 0
0.0000000000000000e+00 0.0000000000000000e+00 0
0.0000000000000000e+00 0.0000000000000000e+00 0
0.0000000000000000e+00 0.0000000000000000e+00 0
0.0000000000000000e+00 0.0000000000000000e+00 0
0.0000000000000000e+00 0.0000000000000000e+00 0
0.0000000000000000e+00 0.0000000000000000e+00 0
0.0000000000000000e+00 0.0000000000000000e+00 0
0.0000000000000000e+00 0.0000000000000000e+00 0
0.0000000000000000e+00 0.0000000000000000e+00 0
0.0000000000000000e+00 0.0000000000000000e+00 0
0.0000000000000000e+00 0.0000000000000000e+00 0
0.0000000000000000e+00 0.0000000000000000e+00 0
0.0000000000000000e+00 0.0000000000000000e+00 0
0.0000000000000000e+00 0.0000000000000000e+00 0
0.0000000000000000e+00 0.0000000000000000e+00 0
0.0000000000000000e+00 0.0000000000000000e+00 0
0.0000000000000000e+00 0.0000000000000000e+00 0
0.0000000000000000e+00 0.0000000000000000e+00 0
0.0000000000000000e+00 0.0000000000000000e+00 0
0.0000000000000000e+00 0.0000000000000000e+00 0
0.0000000000000000e+00 0.0000000000000000e+00 0
0.0000000000000000e+00 0.0000000000000000e+00 0
0.0000000000000000e+00 0.0000000000000000e+00 0
0.0000000000000000e+00 0.0000000000000000e+00 0
0.0000000000000000e+00 0.0000000000000000e+00 0
0.0000000000000000e+00 0.0000000000000000e+00 0
0.0000000000000000e+00 0.0000000000000000e+00 0
0.0000000000000000e+00 0.0000000000000000e+00 0
0.0000000000000000e+00 0.0000000000000000e+00 0
0.0000000000000000e+00 0.0000000000000000e+00 0
0.0000000000000000e+00 0.0000000000000000e+00 0
0.0000000000000000e+00 0.0000000000000000e+00 0
0.0000000000000000e+00 0.0000000000000000e+00 0
0.0000000000000000e+00 0.0000000000000000e+00 0
0.0000000000000000e+00 0.0000000000000000e+00 0
0.0000000000000000e+00 0.0000000000000000e+00 0
0.0000000000000000e+00 0.0000000000000000e+00 0
0.0000000000000000e+00 0.0000000000000000e+00 0
0.0000000000000000e+00 0.0000000000000000e+00 0
0.0000000000000000e+00 0.0000000000000000e+00 0
0.0000000000000000e+00 0.0000000000000000e+00 0
0.0000000000000000e+00 0.0000000000000000e+00 0
0.0000000000000000e+00 0.0000000000000000e+00 0
0.0000000000000000e+00 0.0000000000000000e+00 0
0.0000000000000000e+00 0.0000000000000000e+00 0
0.0000000000000000e+00 0.0000000000000000e+00 0
0.0000000000000000e+00 0.0000000000000000e+00 0
0.0000000000000000e+00 0.0000000000000000e+00 0
0.0000000000000000e+00 0.0000000000000000e+00 0
0.0000000000000000e+00 0.0000000000000000e+00 0
0.0000000000000000e+00 0.0000000000000000e+00 0
0.0000000000000000e+00 0.0000000000000000e+00 0

VECTORS Displacement float
0.0000000000000000e+00 0.0000000000000000e+00 0
2.1147127143843866e-03 2.7615501854852337e-03 0
9.1674321223390073e-04 1.4062243049627709e-03 0
0.0000000000000000e+00 0.0000000000000000e+00 0
2.0429025153182088e-03 -2.8751750989506465e-03 0
8.4938339447155763e-04 -1.4491201314481995e-03 0
6.7012832282651973e-03 5.6247071555643284e-03 0
4.0171843333388808e-03 4.1857307001190855e-03 0
6.7909081610495756e-03 -5.7096776327859120e-03 0
4.0490680402774648e-03 -4.3127023896863698e-03 0
1.4671917498723038e-02 8.3884723261514523e-03 0
1.0310998345662421e-02 7.0376583218861692e-03 0
1.4586702064082295e-02 -8.5076581096026199e-03 0
1.0302298159726463e-02 -7.1079397840303985e-03 0
2.5517985865766125e-02 1.1025534610602929e-02 0
1.9707026489509019e-02 9.7140991722867026e-03 0
2.5611460069063764e-02 -1.1175708156849713e-02 0
1.9710815081909555e-02 -9.8807319086136221e-03 0
3.9451010199411329e-02 1.3573136311728675e-02 0
3.2118056481584285e-02 1.2307433128266477e-02 0
3.9397091907715558e-02 -1.3744816262282519e-02 0
3.2162824537194559e-02 -1.2436508528894953e-02 0
5.6196467759353032e-02 1.5951241829074828e-02 0
4.7497558092654858e-02 1.4795414776821822e-02 0
5.6296948808123512e-02 -1.6247605464923865e-02 0
4.7474560667641240e-02 -1.5053579854450922e-02 0
7.5541067376646773e-02 1.8068664578339340e-02 0
6.5544796516909115e-02 1.7042514246797272e-02 0
7.5560887921543890e-02 -1.8267325853709764e-02 0
6.5670672803670269e-02 -1.7284383533700941e-02 0
9.6889269109523807e-02 1.9930297125947474e-02 0
8.5979030057525704e-02 1.9014082456648245e-02 0
9.6930474569596248e-02 -2.0151827629873623e-02 0
8.5951430919333077e-02 -1.9234110848889333e-02 0
1.2028919502084069e-01 2.1598356781617527e-02 0
1.0835762802328067e-01 2.0798528471715129e-02 0
1.2029075581551929e-01 -2.1742032949501090e-02 0
1.0843342548761839e-01 -2.0969811130955501e-02 0
1.4543365683532453e-01 2.2971177819978442e-02 0
1.3267220372561606e-01 2.2318863264079527e-02 0
1.4541236098012073e-01 -2.3229348440238152e-02 0
1.3258599948701752e-01 -2.2522079248571004e-02 0
1.7190341764957298e-01 2.4127343394118594e-02 0
1.5849321031611496e-01 2.3578611211646623e-02 0
1.7197533519565500e-01 -2.4191977023222577e-02 0
1.5858995546255028e-01 -2.3762263529113422e-02 0
1.9942901382872835e-01 2.4873355230794106e-02 0
1.8561608519349032e-01 2.4543314036610503e-02 0
1.9936694209579400e-01 -2.4915791888359941e-02 0
1.8557528023238440e-01 -2.4575044735478589e-02 0
2.2738037025124186e-01 2.5533592818667534e-02 0
2.1330839232631610e-01 2.5197183705814818e-02 0
2.2740614229396716e-01 -2.5530488861636707e-02 0
2.1333031441977413e-01 -2.5217995472926923e-02 0
2.5613689858295213e-01 2.6183515000987805e-02 0
2.4166407117483996e-01 2.5864949903884778e-02 0
2.5609535777580505e-01 -2.6291865669858291e-02 0
2.4161400277229578e-01 -2.5900437980380192e-02 0
2.8569833756358620e-01 2.6804746421019890e-02 0
2.7080731837221811e-01 2.6506787765869129e-02 0
2.8579931799144731e-01 -2.6857347792167696e-02 0
2.7086835095309331e-01 -2.6618539335718956e-02 0
3.1591969047363144e-01 2.7150753687339595e-02 0
3.0077737508415464e-01 2.7017296900855060e-02 0
3.1581602876764225e-01 -2.7210359840675109e-02 0
3.0076773517515032e-01 -2.7033320354255382e-02 0
3.4624499348308735e-01 2.7320874670845971e-02 0
3.3105492240446410e-01 2.7245733316438193e-02 0
3.4625878769914775e-01 -2.7478029187298303e-02 0
3.3100990018263426e-01 -2.7368540282975841e-02 0
3.7674959046107759e-01 2.7351155465100856e-02 0
3.7676182558709648e-01 9.0707387774700606e-03 0
3.6150295548682332e-01 2.7353256296638526e-02 0
3.7675323595214238e-01 1.8215222643373177e-02 0
3.7676830720924009e-01 -9.2746747627248868e-03 0
3.7677011305942670e-01 -9.7177867090494154e-05 0
3.7675926299404072e-01 -2.7591974788350258e-02 0
3.6150813352244238e-01 -2.7557841205920607e-02 0
3.7676137239726981e-01 -1.8437024555020443e-02 0

VECTORS Stress float
2.0263829878325146e+02 -7.8706113734156133e+00 0
2.0396196647976660e+02 -1.1215159632818313e+01 0
2.0383076611946888e+02 -7.8415032619918748e+00 0
-8.6994690310945089e+01 6.6000899989165873e+00 0
-9.0261060277585557e+01 5.1220762369439399e+00 0
-8.9613147369829562e+01 4.0913444571847322e+00 0
2.0318693851584885e+02 -2.1728872850336529e+01 0
2.0365523445343410e+02 -1.6304824186684755e+01 0
-8.9600432821698519e+01 1.0749578923734589e+01 0
-8.9971874743792682e+01 7.8750824696501240e+00 0
2.0166294701446986e+02 -3.2508815757647426e+01 0
2.0248801565645067e+02 -2.7204772354686156e+01 0
-8.9269734562988333e+01 1.5920329460582252e+01 0
-8.9357792263159695e+01 1.3424662605445064e+01 0
1.9863939948534630e+02 -4.2384536312724777e+01 0
2.0025110993523708e+02 -3.7553619076058567e+01 0
-8.8632111203178965e+01 2.0735566332989947e+01 0
-8.8907439244767602e+01 1.8332262699309013e+01 0
1.9417008466826724e+02 -5.1213718901847187e+01 0
1.9658018871495779e+02 -4.6919536060106566e+01 0
-8.7701491835955721e+01 2.5526414819305046e+01 0
-8.8198786233911960e+01 2.3132093343760971e+01 0
1.8852410915682844e+02 -5.8759275247869027e+01 0
1.9154562741127256e+02 -5.5231475143969419e+01 0
-8.6787820225395535e+01 2.9416099399109953e+01 0
-8.7291481286130420e+01 2.7718008885182826e+01 0
1.8232952896425991e+02 -6.4429584519396485e+01 0
1.8547525085266057e+02 -6.1992363574924639e+01 0
-8.5804351864349428e+01 3.2554188143169540e+01 0
-8.6378728064813913e+01 3.1087367778663520e+01 0
1.7590143702187834e+02 -6.8413043907812153e+01 0
1.7917956013315052e+02 -6.6499882532956235e+01 0
-8.4608655133687989e+01 3.5297222738461642e+01 0
-8.5215582792744726e+01 3.4014320467374091e+01 0
1.6902488197663274e+02 -7.1775715982048951e+01 0
1.7243714435388256e+02 -7.0167384868399495e+01 0
-8.3258076492646978e+01 3.7357248464337317e+01 0
-8.3929478501887843e+01 3.6306235564315102e+01 0
1.6236529575038480e+02 -7.3480874978482461e+01 0
1.6565335061481323e+02 -7.2704403336950691e+01 0
-8.1587607925257089e+01 3.9008758000456055e+01 0
-8.2427200889372216e+01 3.8178526591134869e+01 0
1.5580212020592887e+02 -7.4300246577583039e+01 0
1.5906684482390460e+02 -7.3992234103965075e+01 0
-7.9886276798926701e+01 3.9499467277803888e+01 0
-8.0743974972660567e+01 3.9405186939450687e+01 0
1.4989787216870707e+02 -7.3627170040555484e+01 0
1.5272700699259713e+02 -7.4309749722988272e+01 0
-7.7924218385377571e+01 3.9377145868036678e+01 0
-7.8971134167726632e+01 3.9550290362269607e+01 0
1.4392761307698902e+02 -7.2135526973724836e+01 0
1.4707344796757013e+02 -7.2895418069615516e+01 0
-7.5575588172694552e+01 3.9189724327126441e+01 0
-7.6825220348450443e+01 3.9324838804883939e+01 0
1.3699855130882332e+02 -7.0719487098666605e+01 0
1.4053324742782354e+02 -7.1467152157653572e+01 0
-7.3011444960674282e+01 3.9073081623821736e+01 0
-7.4293651827291285e+01 3.9120022747598796e+01 0
1.2879663896614295e+02 -6.8464721684462575e+01 0
1.3322627023548273e+02 -6.9734789691599644e+01 0
-7.0424235645550169e+01 3.8392673634945368e+01 0
-7.1717376966925087e+01 3.8909659063616687e+01 0
1.1834398019882508e+02 -6.4030346437849403e+01 0
1.2314695547530931e+02 -6.6192685205317275e+01 0
-6.7652005354368299e+01 3.6074198482185238e+01 0
-6.8994143214660909e+01 3.6643252271473500e+01 0
1.2013607078164253e+02 -6.3434656994529405e+01 0
1.2010825466807725e+02 -6.3898360303082370e+01 0
-6.7219474182971723e+01 4.7086847220756432e+01 0
-6.7237397711742616e+01 4.2003856191599425e+01 0
2.7988764264722647e+01 -2.3496545862315884e+01 0
-1.7111688206109875e+01 -1.9659162401966682e+01 0
9.1934883037379279e+01 -5.0836285389355169e+01 0
-6.5649439894670536e+00 -1.2138893610512525e+01 0
-1.9079651677553016e+01 -4.4691200595581876e+01 0
-1.8427018063265109e+01 -3.3297453916552030e+01 0
-5.0695885954538497e+01 -2.8208859118386933e+01 0
-6.1538571188844628e+01 2.6405023590272560e+01 0
-2.6143215071546507e+01 -4.7237904777978940e+01 0

