# vtk DataFile Version 2.0

ASCII

DATASET UNSTRUCTURED_GRID

POINTS 79 float 

-5.0000000000000003e-02  0.0000000000000000e+00  0.0000000000000000e+00
-5.0000000000000003e-02  5.5555555555555552e-02  0.0000000000000000e+00
-5.0000000000000003e-02  2.7777777777777776e-02  0.0000000000000000e+00
5.0000000000000003e-02  0.0000000000000000e+00  0.0000000000000000e+00
5.0000000000000003e-02  5.5555555555555552e-02  0.0000000000000000e+00
5.0000000000000003e-02  2.7777777777777776e-02  0.0000000000000000e+00
-5.0000000000000003e-02  1.1111111111111110e-01  0.0000000000000000e+00
-5.0000000000000003e-02  8.3333333333333329e-02  0.0000000000000000e+00
5.0000000000000003e-02  1.1111111111111110e-01  0.0000000000000000e+00
5.0000000000000003e-02  8.3333333333333329e-02  0.0000000000000000e+00
-5.0000000000000003e-02  1.6666666666666666e-01  0.0000000000000000e+00
-5.0000000000000003e-02  1.3888888888888890e-01  0.0000000000000000e+00
5.0000000000000003e-02  1.6666666666666666e-01  0.0000000000000000e+00
5.0000000000000003e-02  1.3888888888888890e-01  0.0000000000000000e+00
-5.0000000000000003e-02  2.2222222222222221e-01  0.0000000000000000e+00
-5.0000000000000003e-02  1.9444444444444442e-01  0.0000000000000000e+00
5.0000000000000003e-02  2.2222222222222221e-01  0.0000000000000000e+00
5.0000000000000003e-02  1.9444444444444442e-01  0.0000000000000000e+00
-5.0000000000000003e-02  2.7777777777777779e-01  0.0000000000000000e+00
-5.0000000000000003e-02  2.5000000000000000e-01  0.0000000000000000e+00
5.0000000000000003e-02  2.7777777777777779e-01  0.0000000000000000e+00
5.0000000000000003e-02  2.5000000000000000e-01  0.0000000000000000e+00
-5.0000000000000003e-02  3.3333333333333331e-01  0.0000000000000000e+00
-5.0000000000000003e-02  3.0555555555555558e-01  0.0000000000000000e+00
5.0000000000000003e-02  3.3333333333333331e-01  0.0000000000000000e+00
5.0000000000000003e-02  3.0555555555555558e-01  0.0000000000000000e+00
-5.0000000000000003e-02  3.8888888888888884e-01  0.0000000000000000e+00
-5.0000000000000003e-02  3.6111111111111105e-01  0.0000000000000000e+00
5.0000000000000003e-02  3.8888888888888884e-01  0.0000000000000000e+00
5.0000000000000003e-02  3.6111111111111105e-01  0.0000000000000000e+00
-5.0000000000000003e-02  4.4444444444444442e-01  0.0000000000000000e+00
-5.0000000000000003e-02  4.1666666666666663e-01  0.0000000000000000e+00
5.0000000000000003e-02  4.4444444444444442e-01  0.0000000000000000e+00
5.0000000000000003e-02  4.1666666666666663e-01  0.0000000000000000e+00
-5.0000000000000003e-02  5.0000000000000000e-01  0.0000000000000000e+00
-5.0000000000000003e-02  4.7222222222222221e-01  0.0000000000000000e+00
5.0000000000000003e-02  5.0000000000000000e-01  0.0000000000000000e+00
5.0000000000000003e-02  4.7222222222222221e-01  0.0000000000000000e+00
-5.0000000000000003e-02  5.5555555555555558e-01  0.0000000000000000e+00
-5.0000000000000003e-02  5.2777777777777779e-01  0.0000000000000000e+00
5.0000000000000003e-02  5.5555555555555558e-01  0.0000000000000000e+00
5.0000000000000003e-02  5.2777777777777779e-01  0.0000000000000000e+00
-5.0000000000000003e-02  6.1111111111111105e-01  0.0000000000000000e+00
-5.0000000000000003e-02  5.8333333333333326e-01  0.0000000000000000e+00
5.0000000000000003e-02  6.1111111111111105e-01  0.0000000000000000e+00
5.0000000000000003e-02  5.8333333333333326e-01  0.0000000000000000e+00
-5.0000000000000003e-02  6.6666666666666663e-01  0.0000000000000000e+00
-5.0000000000000003e-02  6.3888888888888884e-01  0.0000000000000000e+00
5.0000000000000003e-02  6.6666666666666663e-01  0.0000000000000000e+00
5.0000000000000003e-02  6.3888888888888884e-01  0.0000000000000000e+00
-5.0000000000000003e-02  7.2222222222222221e-01  0.0000000000000000e+00
-5.0000000000000003e-02  6.9444444444444442e-01  0.0000000000000000e+00
5.0000000000000003e-02  7.2222222222222221e-01  0.0000000000000000e+00
5.0000000000000003e-02  6.9444444444444442e-01  0.0000000000000000e+00
-5.0000000000000003e-02  7.7777777777777768e-01  0.0000000000000000e+00
-5.0000000000000003e-02  7.5000000000000000e-01  0.0000000000000000e+00
5.0000000000000003e-02  7.7777777777777768e-01  0.0000000000000000e+00
5.0000000000000003e-02  7.5000000000000000e-01  0.0000000000000000e+00
-5.0000000000000003e-02  8.3333333333333326e-01  0.0000000000000000e+00
-5.0000000000000003e-02  8.0555555555555547e-01  0.0000000000000000e+00
5.0000000000000003e-02  8.3333333333333326e-01  0.0000000000000000e+00
5.0000000000000003e-02  8.0555555555555547e-01  0.0000000000000000e+00
-5.0000000000000003e-02  8.8888888888888884e-01  0.0000000000000000e+00
-5.0000000000000003e-02  8.6111111111111105e-01  0.0000000000000000e+00
5.0000000000000003e-02  8.8888888888888884e-01  0.0000000000000000e+00
5.0000000000000003e-02  8.6111111111111105e-01  0.0000000000000000e+00
-5.0000000000000003e-02  9.4444444444444442e-01  0.0000000000000000e+00
-5.0000000000000003e-02  9.1666666666666663e-01  0.0000000000000000e+00
5.0000000000000003e-02  9.4444444444444442e-01  0.0000000000000000e+00
5.0000000000000003e-02  9.1666666666666663e-01  0.0000000000000000e+00
-5.0000000000000003e-02  1.0000000000000000e+00  0.0000000000000000e+00
-1.6666666666666670e-02  1.0000000000000000e+00  0.0000000000000000e+00
-5.0000000000000003e-02  9.7222222222222221e-01  0.0000000000000000e+00
-3.3333333333333340e-02  1.0000000000000000e+00  0.0000000000000000e+00
1.6666666666666663e-02  1.0000000000000000e+00  0.0000000000000000e+00
-3.4694469519536142e-18  1.0000000000000000e+00  0.0000000000000000e+00
5.0000000000000003e-02  1.0000000000000000e+00  0.0000000000000000e+00
5.0000000000000003e-02  9.7222222222222221e-01  0.0000000000000000e+00
3.3333333333333333e-02  1.0000000000000000e+00  0.0000000000000000e+00

CELLS 0 0


CELL_TYPES 0


POINT_DATA 79

VECTORS VertexNormals float

0.0000000000000000e+00 0.0000000000000000e+00 0
0.0000000000000000e+00 0.0000000000000000e+00 0
0.0000000000000000e+00 0.0000000000000000e+00 0
0.0000000000000000e+00 0.0000000000000000e+00 0
0.0000000000000000e+00 0.0000000000000000e+00 0
0.0000000000000000e+00 0.0000000000000000e+00 0
0.0000000000000000e+00 0.0000000000000000e+00 0
0.0000000000000000e+00 0.0000000000000000e+00 0
0.0000000000000000e+00 0.0000000000000000e+00 0
0.0000000000000000e+00 0.0000000000000000e+00 0
0.0000000000000000e+00 0.0000000000000000e+00 0
0.0000000000000000e+00 0.0000000000000000e+00 0
0.0000000000000000e+00 0.0000000000000000e+00 0
0.0000000000000000e+00 0.0000000000000000e+00 0
0.0000000000000000e+00 0.0000000000000000e+00 0
0.0000000000000000e+00 0.0000000000000000e+00 0
0.0000000000000000e+00 0.0000000000000000e+00 0
0.0000000000000000e+00 0.0000000000000000e+00 0
0.0000000000000000e+00 0.0000000000000000e+00 0
0.0000000000000000e+00 0.0000000000000000e+00 0
0.0000000000000000e+00 0.0000000000000000e+00 0
0.0000000000000000e+00 0.0000000000000000e+00 0
0.0000000000000000e+00 0.0000000000000000e+00 0
0.0000000000000000e+00 0.0000000000000000e+00 0
0.0000000000000000e+00 0.0000000000000000e+00 0
0.0000000000000000e+00 0.0000000000000000e+00 0
0.0000000000000000e+00 0.0000000000000000e+00 0
0.0000000000000000e+00 0.0000000000000000e+00 0
0.0000000000000000e+00 0.0000000000000000e+00 0
0.0000000000000000e+00 0.0000000000000000e+00 0
0.0000000000000000e+00 0.0000000000000000e+00 0
0.0000000000000000e+00 0.0000000000000000e+00 0
0.0000000000000000e+00 0.0000000000000000e+00 0
0.0000000000000000e+00 0.0000000000000000e+00 0
0.0000000000000000e+00 0.0000000000000000e+00 0
0.0000000000000000e+00 0.0000000000000000e+00 0
0.0000000000000000e+00 0.0000000000000000e+00 0
0.0000000000000000e+00 0.0000000000000000e+00 0
0.0000000000000000e+00 0.0000000000000000e+00 0
0.0000000000000000e+00 0.0000000000000000e+00 0
0.0000000000000000e+00 0.0000000000000000e+00 0
0.0000000000000000e+00 0.0000000000000000e+00 0
0.0000000000000000e+00 0.0000000000000000e+00 0
0.0000000000000000e+00 0.0000000000000000e+00 0
0.0000000000000000e+00 0.0000000000000000e+00 0
0.0000000000000000e+00 0.0000000000000000e+00 0
0.0000000000000000e+00 0.0000000000000000e+00 0
0.0000000000000000e+00 0.0000000000000000e+00 0
0.0000000000000000e+00 0.0000000000000000e+00 0
0.0000000000000000e+00 0.0000000000000000e+00 0
0.0000000000000000e+00 0.0000000000000000e+00 0
0.0000000000000000e+00 0.0000000000000000e+00 0
0.0000000000000000e+00 0.0000000000000000e+00 0
0.0000000000000000e+00 0.0000000000000000e+00 0
0.0000000000000000e+00 0.0000000000000000e+00 0
0.0000000000000000e+00 0.0000000000000000e+00 0
0.0000000000000000e+00 0.0000000000000000e+00 0
0.0000000000000000e+00 0.0000000000000000e+00 0
0.0000000000000000e+00 0.0000000000000000e+00 0
0.0000000000000000e+00 0.0000000000000000e+00 0
0.0000000000000000e+00 0.0000000000000000e+00 0
0.0000000000000000e+00 0.0000000000000000e+00 0
0.0000000000000000e+00 0.0000000000000000e+00 0
0.0000000000000000e+00 0.0000000000000000e+00 0
0.0000000000000000e+00 0.0000000000000000e+00 0
0.0000000000000000e+00 0.0000000000000000e+00 0
0.0000000000000000e+00 0.0000000000000000e+00 0
0.0000000000000000e+00 0.0000000000000000e+00 0
0.0000000000000000e+00 0.0000000000000000e+00 0
0.0000000000000000e+00 0.0000000000000000e+00 0
0.0000000000000000e+00 0.0000000000000000e+00 0
0.0000000000000000e+00 0.0000000000000000e+00 0
0.0000000000000000e+00 0.0000000000000000e+00 0
0.0000000000000000e+00 0.0000000000000000e+00 0
0.0000000000000000e+00 0.0000000000000000e+00 0
0.0000000000000000e+00 0.0000000000000000e+00 0
0.0000000000000000e+00 0.0000000000000000e+00 0
0.0000000000000000e+00 0.0000000000000000e+00 0
0.0000000000000000e+00 0.0000000000000000e+00 0

VECTORS Displacement float
0.0000000000000000e+00 0.0000000000000000e+00 0
1.5785917832853837e-03 1.6411636058022987e-03 0
7.1987964551369467e-04 9.0994286775164816e-04 0
0.0000000000000000e+00 0.0000000000000000e+00 0
1.5587547854792377e-03 -1.6767387266794745e-03 0
6.7423597774922644e-04 -9.1763588787191659e-04 0
4.4553116904052399e-03 2.8864308160737647e-03 0
2.8166457404365901e-03 2.3014187000733963e-03 0
4.4599017678656127e-03 -2.8441582300847900e-03 0
2.8410246359059006e-03 -2.3131702868670204e-03 0
8.3929567394807284e-03 3.6782124952463762e-03 0
6.3616594000274682e-03 3.3276210613701006e-03 0
8.3479285134748192e-03 -3.5807608105299128e-03 0
6.3012480479696324e-03 -3.2560194477449988e-03 0
1.2909417188513565e-02 4.1628501744188839e-03 0
1.0569102410103729e-02 3.9625779066053577e-03 0
1.2937532371113475e-02 -3.8993385785740745e-03 0
1.0607156836613240e-02 -3.7856074585098354e-03 0
1.7682548162893681e-02 4.2674491167364612e-03 0
1.5302214665529808e-02 4.2515696365174110e-03 0
1.7668087322420978e-02 -3.9969661176794350e-03 0
1.5276718075312142e-02 -3.9702061627005765e-03 0
2.2339059619035845e-02 4.1153552959462183e-03 0
2.0039729681923794e-02 4.2156143921762753e-03 0
2.2373820683195267e-02 -3.8307930741301485e-03 0
2.0060274499254554e-02 -3.9387199274971384e-03 0
2.6759546083849790e-02 3.7708237342736427e-03 0
2.4590942509683113e-02 3.9726301706086735e-03 0
2.6789451196310408e-02 -3.4872681126328748e-03 0
2.4625750234079848e-02 -3.6881247008264681e-03 0
3.0571889129531217e-02 3.2335987877880014e-03 0
2.8759916494967834e-02 3.5087921680663041e-03 0
3.0580104951193322e-02 -2.9455773999966339e-03 0
2.8779110780251034e-02 -3.2244019922240087e-03 0
3.3724918833210847e-02 2.6461889474945540e-03 0
3.2230851579501049e-02 2.9527513423007329e-03 0
3.3727275588175155e-02 -2.3423776864338452e-03 0
3.2233388742635018e-02 -2.6578818607677127e-03 0
3.6096527634151665e-02 1.9950266566626865e-03 0
3.5013438966588595e-02 2.3166142304131164e-03 0
3.6111362722449379e-02 -1.6825513108601848e-03 0
3.5021421457047251e-02 -2.0055578021960451e-03 0
3.7813753267977215e-02 1.3975377386616561e-03 0
3.7019362557719711e-02 1.6983670062645129e-03 0
3.7835003935908100e-02 -1.0946055461928488e-03 0
3.7038669696608559e-02 -1.3903180386548963e-03 0
3.8880883206856350e-02 6.6543406677533625e-04 0
3.8455306345475518e-02 1.0535008937127967e-03 0
3.8897438644174373e-02 -3.4934685265273509e-04 0
3.8475132886645544e-02 -7.4825910750950068e-04 0
3.8971507816025139e-02 -1.7148245016452638e-04 0
3.9045087329697956e-02 2.5075980889412077e-04 0
3.8982370124658397e-02 4.7474617612236936e-04 0
3.9059445062660209e-02 7.1150765812365963e-05 0
3.8156698788164189e-02 -1.0979379310568380e-03 0
3.8693951698654083e-02 -6.1914145420657917e-04 0
3.8166977122708140e-02 1.3079283296677595e-03 0
3.8700770197560172e-02 8.7613920185425928e-04 0
3.6086333687276928e-02 -1.9687920613655598e-03 0
3.7287437246960271e-02 -1.5706803324000243e-03 0
3.6154852107590334e-02 2.1876876116710096e-03 0
3.7321205641182811e-02 1.7672058205924677e-03 0
3.3167360784514571e-02 -2.3685653242211113e-03 0
3.4666737656591284e-02 -2.2309354156189818e-03 0
3.3128901896640542e-02 2.5729128123739304e-03 0
3.4713790447706783e-02 2.4687919732760753e-03 0
3.0221483279980688e-02 -2.3322722892456888e-03 0
3.1661444960156160e-02 -2.3854399001135753e-03 0
3.0231234810701675e-02 2.3874126269453713e-03 0
3.1606938547017904e-02 2.5038418420325285e-03 0
2.7683750061950417e-02 -2.1973136498419140e-03 0
2.7647871768181953e-02 -7.2511998885182278e-04 0
2.8907652685540797e-02 -2.2499393154690609e-03 0
2.7665811027362687e-02 -1.4712381088956448e-03 0
2.7667013392014529e-02 7.6047262023038365e-04 0
2.7650830768874014e-02 1.9390083688986773e-05 0
2.7705757510120665e-02 2.2783330155367156e-03 0
2.8952212028153859e-02 2.3108169665711172e-03 0
2.7689707446467419e-02 1.5227174939556084e-03 0

VECTORS Stress float
1.1075296037733278e+02 -3.8888617765798585e+00 0
1.1030490533625107e+02 -3.9636087344792941e+00 0
1.1044969702825347e+02 -3.2348708239204598e+00 0
8.8775374021918708e+01 -3.8123332685661921e+00 0
8.6243272109876443e+01 -3.1516968371195162e+00 0
8.6871167019052564e+01 -2.7579998583337328e+00 0
1.1035612298950218e+02 -6.8161389129893450e+00 0
1.1034630946813354e+02 -5.4679593249450136e+00 0
8.6458705342092344e+01 -5.5049109808628600e+00 0
8.6302533564118676e+01 -4.3559030423825789e+00 0
1.0998661494486714e+02 -8.2141410435970101e+00 0
1.1017988061335973e+02 -7.6144646450745768e+00 0
8.6576008177934909e+01 -6.7158562533604709e+00 0
8.6523832649532324e+01 -6.2243145026477578e+00 0
1.0928992094624800e+02 -9.1478579137528868e+00 0
1.0963184672584202e+02 -8.7430676781032162e+00 0
8.7211963541246405e+01 -7.2875165755763192e+00 0
8.6865227938838871e+01 -7.0703818328734087e+00 0
1.0836754898995923e+02 -9.1747158846437742e+00 0
1.0885587830936447e+02 -9.2771778002024803e+00 0
8.8363198352883956e+01 -7.4828432093586343e+00 0
8.7724341747827111e+01 -7.4267213406374140e+00 0
1.0720320735212044e+02 -8.7561140650495872e+00 0
1.0785691803278314e+02 -8.9859907182867573e+00 0
9.0047809924682952e+01 -7.3183964371251022e+00 0
8.9095570521788432e+01 -7.4387687766484305e+00 0
1.0581637028025261e+02 -7.8669710402155033e+00 0
1.0656504281979869e+02 -8.4214016889695813e+00 0
9.2288232494916429e+01 -6.6953443671923196e+00 0
9.1059628592007357e+01 -7.0715548052148733e+00 0
1.0417716522041565e+02 -6.4642239720815269e+00 0
1.0503469018877331e+02 -7.1787359050676969e+00 0
9.4995421582285417e+01 -5.7102946927952871e+00 0
9.3602410553189657e+01 -6.2129968236590685e+00 0
1.0215326915058131e+02 -5.0370308499495877e+00 0
1.0319256696716457e+02 -5.7595647557500342e+00 0
9.7950108409375844e+01 -4.6910967110470665e+00 0
9.6481446232653070e+01 -5.2254385389260278e+00 0
9.9688610874795813e+01 -3.5350100644236591e+00 0
1.0097037837215476e+02 -4.2801420777536805e+00 0
1.0095133264633932e+02 -3.4896121792935446e+00 0
9.9482950720485405e+01 -4.1045573757319289e+00 0
9.6677150072440327e+01 -2.3230476670869393e+00 0
9.8260608880520067e+01 -2.9000128910861349e+00 0
1.0365486131557191e+02 -2.4254592261845573e+00 0
1.0235057638616399e+02 -2.9489572587503972e+00 0
9.3129980043680007e+01 -8.6540492903827726e-01 0
9.4968932111587492e+01 -1.6657336989574105e+00 0
1.0593603805581279e+02 -9.4254896523989373e-01 0
1.0484509952242797e+02 -1.7751555252420985e+00 0
8.8747491079601332e+01 8.4732613052710803e-01 0
9.1067839393384929e+01 1.3197570918464407e-02 0
1.0742262725517139e+02 9.2127654805835846e-01 0
1.0681711531529527e+02 1.0907113474331709e-02 0
8.2968587269025420e+01 2.1605425305024255e+00 0
8.6064871749967551e+01 1.6339728770981310e+00 0
1.0791788046264469e+02 2.7034944694730711e+00 0
1.0774261184715897e+02 1.8481777132617481e+00 0
7.4561599396771385e+01 3.7960917733053066e+00 0
7.9283053283650361e+01 2.5481329293816088e+00 0
1.0674178212349716e+02 5.1167704322975851e+00 0
1.0782064843561659e+02 3.5846800277104194e+00 0
6.0726040528409726e+01 6.8329212405892576e+00 0
6.8304891199636131e+01 6.9695560116076649e+00 0
1.0235288887586552e+02 8.0889848884719981e+00 0
1.0403589002929493e+02 7.8324860252922690e+00 0
3.9065428723377181e+01 -2.3447328959248352e+01 0
5.1991373197693520e+01 -9.8230195541425473e+00 0
1.1450082970779135e+02 -1.2065221489490426e+01 0
1.0925186708912597e+02 -3.3041074289656649e+00 0
-1.0335192146927966e+01 1.4292540476430526e+02 0
-5.8743291618145008e+00 1.5746581384737704e+02 0
1.8378215617654519e+01 2.0496487888907268e+01 0
-6.9444122503697372e+00 1.6272055681488212e+02 0
-8.2459011355273333e+00 1.3006056762229113e+02 0
-6.2521245454840084e+00 1.4344833934947445e+02 0
1.3623022030646723e+01 9.6822852251551495e+01 0
8.6815616727915113e+01 1.6421498193431574e+01 0
-5.2858119081972177e+00 1.1557326423011654e+02 0

