# vtk DataFile Version 2.0

ASCII

DATASET UNSTRUCTURED_GRID

POINTS 79 float 

-5.0000000000000003e-02  0.0000000000000000e+00  0.0000000000000000e+00
-5.0000000000000003e-02  5.5555555555555552e-02  0.0000000000000000e+00
-5.0000000000000003e-02  2.7777777777777776e-02  0.0000000000000000e+00
5.0000000000000003e-02  0.0000000000000000e+00  0.0000000000000000e+00
5.0000000000000003e-02  5.5555555555555552e-02  0.0000000000000000e+00
5.0000000000000003e-02  2.7777777777777776e-02  0.0000000000000000e+00
-5.0000000000000003e-02  1.1111111111111110e-01  0.0000000000000000e+00
-5.0000000000000003e-02  8.3333333333333329e-02  0.0000000000000000e+00
5.0000000000000003e-02  1.1111111111111110e-01  0.0000000000000000e+00
5.0000000000000003e-02  8.3333333333333329e-02  0.0000000000000000e+00
-5.0000000000000003e-02  1.6666666666666666e-01  0.0000000000000000e+00
-5.0000000000000003e-02  1.3888888888888890e-01  0.0000000000000000e+00
5.0000000000000003e-02  1.6666666666666666e-01  0.0000000000000000e+00
5.0000000000000003e-02  1.3888888888888890e-01  0.0000000000000000e+00
-5.0000000000000003e-02  2.2222222222222221e-01  0.0000000000000000e+00
-5.0000000000000003e-02  1.9444444444444442e-01  0.0000000000000000e+00
5.0000000000000003e-02  2.2222222222222221e-01  0.0000000000000000e+00
5.0000000000000003e-02  1.9444444444444442e-01  0.0000000000000000e+00
-5.0000000000000003e-02  2.7777777777777779e-01  0.0000000000000000e+00
-5.0000000000000003e-02  2.5000000000000000e-01  0.0000000000000000e+00
5.0000000000000003e-02  2.7777777777777779e-01  0.0000000000000000e+00
5.0000000000000003e-02  2.5000000000000000e-01  0.0000000000000000e+00
-5.0000000000000003e-02  3.3333333333333331e-01  0.0000000000000000e+00
-5.0000000000000003e-02  3.0555555555555558e-01  0.0000000000000000e+00
5.0000000000000003e-02  3.3333333333333331e-01  0.0000000000000000e+00
5.0000000000000003e-02  3.0555555555555558e-01  0.0000000000000000e+00
-5.0000000000000003e-02  3.8888888888888884e-01  0.0000000000000000e+00
-5.0000000000000003e-02  3.6111111111111105e-01  0.0000000000000000e+00
5.0000000000000003e-02  3.8888888888888884e-01  0.0000000000000000e+00
5.0000000000000003e-02  3.6111111111111105e-01  0.0000000000000000e+00
-5.0000000000000003e-02  4.4444444444444442e-01  0.0000000000000000e+00
-5.0000000000000003e-02  4.1666666666666663e-01  0.0000000000000000e+00
5.0000000000000003e-02  4.4444444444444442e-01  0.0000000000000000e+00
5.0000000000000003e-02  4.1666666666666663e-01  0.0000000000000000e+00
-5.0000000000000003e-02  5.0000000000000000e-01  0.0000000000000000e+00
-5.0000000000000003e-02  4.7222222222222221e-01  0.0000000000000000e+00
5.0000000000000003e-02  5.0000000000000000e-01  0.0000000000000000e+00
5.0000000000000003e-02  4.7222222222222221e-01  0.0000000000000000e+00
-5.0000000000000003e-02  5.5555555555555558e-01  0.0000000000000000e+00
-5.0000000000000003e-02  5.2777777777777779e-01  0.0000000000000000e+00
5.0000000000000003e-02  5.5555555555555558e-01  0.0000000000000000e+00
5.0000000000000003e-02  5.2777777777777779e-01  0.0000000000000000e+00
-5.0000000000000003e-02  6.1111111111111105e-01  0.0000000000000000e+00
-5.0000000000000003e-02  5.8333333333333326e-01  0.0000000000000000e+00
5.0000000000000003e-02  6.1111111111111105e-01  0.0000000000000000e+00
5.0000000000000003e-02  5.8333333333333326e-01  0.0000000000000000e+00
-5.0000000000000003e-02  6.6666666666666663e-01  0.0000000000000000e+00
-5.0000000000000003e-02  6.3888888888888884e-01  0.0000000000000000e+00
5.0000000000000003e-02  6.6666666666666663e-01  0.0000000000000000e+00
5.0000000000000003e-02  6.3888888888888884e-01  0.0000000000000000e+00
-5.0000000000000003e-02  7.2222222222222221e-01  0.0000000000000000e+00
-5.0000000000000003e-02  6.9444444444444442e-01  0.0000000000000000e+00
5.0000000000000003e-02  7.2222222222222221e-01  0.0000000000000000e+00
5.0000000000000003e-02  6.9444444444444442e-01  0.0000000000000000e+00
-5.0000000000000003e-02  7.7777777777777768e-01  0.0000000000000000e+00
-5.0000000000000003e-02  7.5000000000000000e-01  0.0000000000000000e+00
5.0000000000000003e-02  7.7777777777777768e-01  0.0000000000000000e+00
5.0000000000000003e-02  7.5000000000000000e-01  0.0000000000000000e+00
-5.0000000000000003e-02  8.3333333333333326e-01  0.0000000000000000e+00
-5.0000000000000003e-02  8.0555555555555547e-01  0.0000000000000000e+00
5.0000000000000003e-02  8.3333333333333326e-01  0.0000000000000000e+00
5.0000000000000003e-02  8.0555555555555547e-01  0.0000000000000000e+00
-5.0000000000000003e-02  8.8888888888888884e-01  0.0000000000000000e+00
-5.0000000000000003e-02  8.6111111111111105e-01  0.0000000000000000e+00
5.0000000000000003e-02  8.8888888888888884e-01  0.0000000000000000e+00
5.0000000000000003e-02  8.6111111111111105e-01  0.0000000000000000e+00
-5.0000000000000003e-02  9.4444444444444442e-01  0.0000000000000000e+00
-5.0000000000000003e-02  9.1666666666666663e-01  0.0000000000000000e+00
5.0000000000000003e-02  9.4444444444444442e-01  0.0000000000000000e+00
5.0000000000000003e-02  9.1666666666666663e-01  0.0000000000000000e+00
-5.0000000000000003e-02  1.0000000000000000e+00  0.0000000000000000e+00
-1.6666666666666670e-02  1.0000000000000000e+00  0.0000000000000000e+00
-5.0000000000000003e-02  9.7222222222222221e-01  0.0000000000000000e+00
-3.3333333333333340e-02  1.0000000000000000e+00  0.0000000000000000e+00
1.6666666666666663e-02  1.0000000000000000e+00  0.0000000000000000e+00
-3.4694469519536142e-18  1.0000000000000000e+00  0.0000000000000000e+00
5.0000000000000003e-02  1.0000000000000000e+00  0.0000000000000000e+00
5.0000000000000003e-02  9.7222222222222221e-01  0.0000000000000000e+00
3.3333333333333333e-02  1.0000000000000000e+00  0.0000000000000000e+00

CELLS 0 0


CELL_TYPES 0


POINT_DATA 79

VECTORS VertexNormals float

0.0000000000000000e+00 0.0000000000000000e+00 0
0.0000000000000000e+00 0.0000000000000000e+00 0
0.0000000000000000e+00 0.0000000000000000e+00 0
0.0000000000000000e+00 0.0000000000000000e+00 0
0.0000000000000000e+00 0.0000000000000000e+00 0
0.0000000000000000e+00 0.0000000000000000e+00 0
0.0000000000000000e+00 0.0000000000000000e+00 0
0.0000000000000000e+00 0.0000000000000000e+00 0
0.0000000000000000e+00 0.0000000000000000e+00 0
0.0000000000000000e+00 0.0000000000000000e+00 0
0.0000000000000000e+00 0.0000000000000000e+00 0
0.0000000000000000e+00 0.0000000000000000e+00 0
0.0000000000000000e+00 0.0000000000000000e+00 0
0.0000000000000000e+00 0.0000000000000000e+00 0
0.0000000000000000e+00 0.0000000000000000e+00 0
0.0000000000000000e+00 0.0000000000000000e+00 0
0.0000000000000000e+00 0.0000000000000000e+00 0
0.0000000000000000e+00 0.0000000000000000e+00 0
0.0000000000000000e+00 0.0000000000000000e+00 0
0.0000000000000000e+00 0.0000000000000000e+00 0
0.0000000000000000e+00 0.0000000000000000e+00 0
0.0000000000000000e+00 0.0000000000000000e+00 0
0.0000000000000000e+00 0.0000000000000000e+00 0
0.0000000000000000e+00 0.0000000000000000e+00 0
0.0000000000000000e+00 0.0000000000000000e+00 0
0.0000000000000000e+00 0.0000000000000000e+00 0
0.0000000000000000e+00 0.0000000000000000e+00 0
0.0000000000000000e+00 0.0000000000000000e+00 0
0.0000000000000000e+00 0.0000000000000000e+00 0
0.0000000000000000e+00 0.0000000000000000e+00 0
0.0000000000000000e+00 0.0000000000000000e+00 0
0.0000000000000000e+00 0.0000000000000000e+00 0
0.0000000000000000e+00 0.0000000000000000e+00 0
0.0000000000000000e+00 0.0000000000000000e+00 0
0.0000000000000000e+00 0.0000000000000000e+00 0
0.0000000000000000e+00 0.0000000000000000e+00 0
0.0000000000000000e+00 0.0000000000000000e+00 0
0.0000000000000000e+00 0.0000000000000000e+00 0
0.0000000000000000e+00 0.0000000000000000e+00 0
0.0000000000000000e+00 0.0000000000000000e+00 0
0.0000000000000000e+00 0.0000000000000000e+00 0
0.0000000000000000e+00 0.0000000000000000e+00 0
0.0000000000000000e+00 0.0000000000000000e+00 0
0.0000000000000000e+00 0.0000000000000000e+00 0
0.0000000000000000e+00 0.0000000000000000e+00 0
0.0000000000000000e+00 0.0000000000000000e+00 0
0.0000000000000000e+00 0.0000000000000000e+00 0
0.0000000000000000e+00 0.0000000000000000e+00 0
0.0000000000000000e+00 0.0000000000000000e+00 0
0.0000000000000000e+00 0.0000000000000000e+00 0
0.0000000000000000e+00 0.0000000000000000e+00 0
0.0000000000000000e+00 0.0000000000000000e+00 0
0.0000000000000000e+00 0.0000000000000000e+00 0
0.0000000000000000e+00 0.0000000000000000e+00 0
0.0000000000000000e+00 0.0000000000000000e+00 0
0.0000000000000000e+00 0.0000000000000000e+00 0
0.0000000000000000e+00 0.0000000000000000e+00 0
0.0000000000000000e+00 0.0000000000000000e+00 0
0.0000000000000000e+00 0.0000000000000000e+00 0
0.0000000000000000e+00 0.0000000000000000e+00 0
0.0000000000000000e+00 0.0000000000000000e+00 0
0.0000000000000000e+00 0.0000000000000000e+00 0
0.0000000000000000e+00 0.0000000000000000e+00 0
0.0000000000000000e+00 0.0000000000000000e+00 0
0.0000000000000000e+00 0.0000000000000000e+00 0
0.0000000000000000e+00 0.0000000000000000e+00 0
0.0000000000000000e+00 0.0000000000000000e+00 0
0.0000000000000000e+00 0.0000000000000000e+00 0
0.0000000000000000e+00 0.0000000000000000e+00 0
0.0000000000000000e+00 0.0000000000000000e+00 0
0.0000000000000000e+00 0.0000000000000000e+00 0
0.0000000000000000e+00 0.0000000000000000e+00 0
0.0000000000000000e+00 0.0000000000000000e+00 0
0.0000000000000000e+00 0.0000000000000000e+00 0
0.0000000000000000e+00 0.0000000000000000e+00 0
0.0000000000000000e+00 0.0000000000000000e+00 0
0.0000000000000000e+00 0.0000000000000000e+00 0
0.0000000000000000e+00 0.0000000000000000e+00 0
0.0000000000000000e+00 0.0000000000000000e+00 0

VECTORS Displacement float
0.0000000000000000e+00 0.0000000000000000e+00 0
1.0806423299410885e-03 1.0595686723708191e-03 0
5.0056363162811731e-04 6.0318962455143581e-04 0
0.0000000000000000e+00 0.0000000000000000e+00 0
8.5826136006053990e-04 -8.2120142239003628e-04 0
3.6740816401016889e-04 -4.4967475817955631e-04 0
2.7133197084501463e-03 1.7133500317358333e-03 0
1.8338050309976597e-03 1.4188138384714226e-03 0
2.5487769712720064e-03 -1.3099749414502760e-03 0
1.6295089685705796e-03 -1.1157569139154931e-03 0
4.7172941822899396e-03 2.0490419013562758e-03 0
3.6966966292873368e-03 1.9084197192194177e-03 0
4.5037027953067398e-03 -1.4559952279484668e-03 0
3.5082943387707544e-03 -1.4027131907717472e-03 0
6.9570864340341362e-03 2.1460737619187356e-03 0
5.8233570757682158e-03 2.1438297870352641e-03 0
6.7407574128354620e-03 -1.3599043409490957e-03 0
5.6048413049598154e-03 -1.4583883473812407e-03 0
8.8272439043951163e-03 1.9295504332076260e-03 0
7.9759943911203966e-03 2.0450704503279194e-03 0
8.6273541426811883e-03 -9.4680473067783408e-04 0
7.7669147596846171e-03 -1.1575426925226717e-03 0
1.0329488508090146e-02 1.7819744849152108e-03 0
9.5859729334270474e-03 1.8560236664005906e-03 0
1.0150754939025369e-02 -6.4097574749871235e-04 0
9.3968185243347799e-03 -7.8810905483635209e-04 0
1.1640949984424638e-02 1.4199278042841645e-03 0
1.1042400484176424e-02 1.6426164986919943e-03 0
1.1480890971607515e-02 -1.6899198891175891e-04 0
1.0873302252414164e-02 -4.4092113443223801e-04 0
1.2174328850421464e-02 8.0395091941946070e-04 0
1.2035206750115600e-02 1.1178935153984154e-03 0
1.2028865629498821e-02 5.1767170233275764e-04 0
1.1882900132513922e-02 1.7234272841282121e-04 0
1.1849802045719083e-02 3.6514580964503622e-04 0
1.2090706952717252e-02 5.4452388275583272e-04 0
1.1710983987653007e-02 1.0062458782232313e-03 0
1.1949582614389415e-02 8.0315459168397584e-04 0
1.1228258673404681e-02 2.8877914814497867e-04 0
1.1538914057820811e-02 2.8998482835772179e-04 0
1.1083511512632319e-02 1.1362320537020524e-03 0
1.1398456566731871e-02 1.1061623888465400e-03 0
1.0744720852503775e-02 4.2418332996488133e-04 0
1.0956705808270850e-02 3.4356671265928457e-04 0
1.0585071013084223e-02 1.0775655396541000e-03 0
1.0804824088877146e-02 1.1165093762356463e-03 0
1.0477884272106381e-02 5.8357328197052700e-04 0
1.0587649972500024e-02 5.0911538571582200e-04 0
1.0311741648268095e-02 1.0114699982535923e-03 0
1.0422789015675879e-02 1.0388339631594362e-03 0
1.0310214799963684e-02 6.5624063705122123e-04 0
1.0392882868174280e-02 6.3180750542885509e-04 0
1.0163208711002885e-02 1.0186084003528824e-03 0
1.0233339466753130e-02 1.0064377579996028e-03 0
1.0108049761462623e-02 6.6736497544477697e-04 0
1.0214011345984847e-02 6.6386826830140959e-04 0
9.9875793196345462e-03 1.0695746841863185e-03 0
1.0082196838265133e-02 1.0424922656759167e-03 0
9.9030533633155410e-03 6.5289563693537089e-04 0
1.0008586664753530e-02 6.6695150818373689e-04 0
9.7759459997242316e-03 1.1556034006620229e-03 0
9.8878258030929509e-03 1.1045574198313252e-03 0
9.5705151325427874e-03 6.1128247805545318e-04 0
9.7560994863211473e-03 6.2693683041195798e-04 0
9.4562731064557308e-03 1.2243163822132940e-03 0
9.6296765293583820e-03 1.2080651203850074e-03 0
9.2628843425594763e-03 6.3039408543860101e-04 0
9.4008769783545630e-03 6.1620699796308804e-04 0
9.1760644994706014e-03 1.1866969715301557e-03 0
9.3051513601649094e-03 1.1996539201751617e-03 0
8.9279459797627393e-03 6.6392410219068265e-04 0
8.9147369415097794e-03 8.9895064750990835e-04 0
9.1084441739501532e-03 6.4936203209029039e-04 0
8.9189856791918876e-03 7.7606106797445612e-04 0
8.9159854266050130e-03 1.0866655330473522e-03 0
8.9211348928941465e-03 1.0118320743237633e-03 0
8.8755416002920650e-03 1.2213655807752333e-03 0
9.0259504156219895e-03 1.2036255294443244e-03 0
8.8918685279931828e-03 1.1453070327178425e-03 0

VECTORS Stress float
1.1580719206255691e+02 -4.2487485370412514e+00 0
1.1564127369312700e+02 -2.3163100391086573e+00 0
1.1574889465934939e+02 -2.4949919649833419e+00 0
1.0500409835140465e+02 -4.2775612048184826e+00 0
1.0219241740871962e+02 -1.7834184365303827e+00 0
1.0275711782248118e+02 -1.9933989054267158e+00 0
1.1561123163651428e+02 -3.8680217491714757e+00 0
1.1564249824196804e+02 -3.0913224280975555e+00 0
1.0297909433370705e+02 -3.5879228049793710e+00 0
1.0252125529520026e+02 -2.7344499703535803e+00 0
1.1518483506860866e+02 -4.3554737700228543e+00 0
1.1539332494126847e+02 -4.2015783503952662e+00 0
1.0365159022550142e+02 -3.8842933422447459e+00 0
1.0333272103700165e+02 -3.8392944683778296e+00 0
1.1446160106742173e+02 -4.2558027813411172e+00 0
1.1480467738581956e+02 -4.3720844421777656e+00 0
1.0484076772594653e+02 -3.8848532709926076e+00 0
1.0422371105353477e+02 -3.9411539734051075e+00 0
1.1353747604237924e+02 -3.3867497576138703e+00 0
1.1402523483103778e+02 -3.8962419610838879e+00 0
1.0658097460425142e+02 -3.1945769961621409e+00 0
1.0564397980954436e+02 -3.6132913013684629e+00 0
1.1232788579399949e+02 -2.7852859661934417e+00 0
1.1302445332850039e+02 -2.9766831281558552e+00 0
1.0884441776797212e+02 -2.7181916758927400e+00 0
1.0759764315333450e+02 -2.8481166761048371e+00 0
1.1087029520120177e+02 -1.8452012539337375e+00 0
1.1166686787333674e+02 -2.5199988230788222e+00 0
1.1180552144679314e+02 -1.8519911196581234e+00 0
1.1016195585461446e+02 -2.4795194694061138e+00 0
1.0921926079653713e+02 -4.1137014755804557e-02 0
1.1007332596421475e+02 -9.3330349486495834e-01 0
1.1569599255663161e+02 -5.0857797014941752e-02 0
1.1362688909115423e+02 -9.6272270305416896e-01 0
1.0722100895248423e+02 1.1780684528730490e+00 0
1.0823624172818018e+02 6.8555980611290579e-01 0
1.2056196370538783e+02 1.3226820116569797e+00 0
1.1806996998393788e+02 7.3433214612487063e-01 0
1.0458273896621176e+02 1.2393007748919445e+00 0
1.0595665471661778e+02 1.3179616615134364e+00 0
1.2623816539777090e+02 1.5132917740393168e+00 0
1.2336221526508325e+02 1.5182511207694915e+00 0
1.0113439491713962e+02 8.5384676974172180e-01 0
1.0297835768282539e+02 1.0612413500798539e+00 0
1.3242064868915668e+02 1.1099090323041310e+00 0
1.2927914673820533e+02 1.3443834447207337e+00 0
9.6734306331301923e+01 5.2671766573712375e-01 0
9.9081980024585846e+01 6.6084594718859080e-01 0
1.3878754844225614e+02 6.8983219031542831e-01 0
1.3557291487714565e+02 8.9398120471059883e-01 0
9.1088424439221853e+01 5.6456314437446053e-01 0
9.4073422923628641e+01 4.9240147810905910e-01 0
1.4469328446300915e+02 6.6958983695667484e-01 0
1.4185440362411100e+02 6.3190765845411079e-01 0
8.3634448927332187e+01 2.8679709866764824e-01 0
8.7618769009883636e+01 6.4713137499620643e-01 0
1.4943433228656977e+02 5.7565573117540225e-01 0
1.4722669873480800e+02 7.8218610891190110e-01 0
7.3209481297470802e+01 6.2918197975159273e-01 0
7.8969232876896285e+01 -2.9877079101879644e-01 0
1.5125380652885156e+02 9.8850424522379399e-01 0
1.5106307401765253e+02 1.9352627697639946e-01 0
5.7630822150476092e+01 5.1397058290559698e+00 0
6.6273611040649939e+01 4.9193760058569751e+00 0
1.4727810995555285e+02 4.2431690543106697e+00 0
1.4880724112564587e+02 4.0852655860293225e+00 0
3.1003060204499320e+01 -3.5002953438556460e+01 0
4.6640161290225478e+01 -1.7181081437438593e+01 0
1.6149052065066579e+02 -2.3280150936546363e+01 0
1.5581179658459271e+02 -1.1538663659868803e+01 0
-1.1206863268977486e+01 1.9809938990090086e+02 0
6.9184635712150566e-01 2.2118806990023108e+02 0
1.1315119615531103e+01 2.7114329046150715e+01 0
-1.3043323563622380e+00 2.2650544878081428e+02 0
-4.6065445153218150e+00 1.8303881012065253e+02 0
-9.5950877679257474e-01 2.0301903191005857e+02 0
2.7230640736287370e+01 1.3242177264647006e+02 0
1.2386516698802461e+02 1.7804945473270493e+01 0
-6.0291128809359407e-01 1.6056476855603302e+02 0

