# vtk DataFile Version 2.0

ASCII

DATASET UNSTRUCTURED_GRID

POINTS 33 float 

-5.0000000000000003e-02  3.3333333335000000e-02  1.4999999999999997e-01
-5.0000000000000003e-02  9.9999999985000018e-02  1.4999999999999999e-01
-5.0000000000000003e-02  1.6666666665000002e-01  1.4999999999999999e-01
-5.0000000000000003e-02  2.3333333334999998e-01  1.4999999999999999e-01
-5.0000000000000003e-02  2.9999999999999993e-01  1.4999999999999997e-01
-5.0000000000000003e-02  3.6666666665000003e-01  1.4999999999999999e-01
-5.0000000000000003e-02  4.3333333335000002e-01  1.4999999999999999e-01
-5.0000000000000003e-02  5.0000000000000000e-01  1.4999999999999997e-01
-5.0000000000000003e-02  5.6666666664999987e-01  1.4999999999999999e-01
-5.0000000000000003e-02  6.3333333334999986e-01  1.4999999999999999e-01
-5.0000000000000003e-02  6.9999999999999984e-01  1.4999999999999997e-01
-5.0000000000000003e-02  7.6666666664999994e-01  1.4999999999999999e-01
-4.9999999999999996e-02  8.3333333334999982e-01  1.4999999999999999e-01
-5.0000000000000003e-02  8.9999999999999991e-01  1.4999999999999997e-01
-5.0000000000000003e-02  9.6666666664999990e-01  1.4999999999999999e-01
-3.3333333335000000e-02  9.9999999999999978e-01  1.4999999999999997e-01
0.0000000000000000e+00  1.0000000000000000e+00  1.4999999999999997e-01
3.3333333335000007e-02  1.0000000000000000e+00  1.4999999999999999e-01
5.0000000000000003e-02  3.3333333335000000e-02  1.4999999999999999e-01
5.0000000000000003e-02  9.9999999985000004e-02  1.4999999999999999e-01
5.0000000000000003e-02  1.6666666664999999e-01  1.4999999999999999e-01
5.0000000000000003e-02  2.3333333334999998e-01  1.4999999999999999e-01
5.0000000000000003e-02  2.9999999999999993e-01  1.4999999999999997e-01
5.0000000000000003e-02  3.6666666665000003e-01  1.4999999999999999e-01
5.0000000000000003e-02  4.3333333334999991e-01  1.4999999999999999e-01
5.0000000000000003e-02  5.0000000000000000e-01  1.4999999999999997e-01
5.0000000000000003e-02  5.6666666664999987e-01  1.4999999999999999e-01
5.0000000000000003e-02  6.3333333334999997e-01  1.4999999999999999e-01
5.0000000000000003e-02  6.9999999999999984e-01  1.4999999999999997e-01
5.0000000000000003e-02  7.6666666664999994e-01  1.4999999999999999e-01
5.0000000000000003e-02  8.3333333334999993e-01  1.4999999999999999e-01
5.0000000000000010e-02  8.9999999999999991e-01  1.4999999999999999e-01
5.0000000000000003e-02  9.6666666664999990e-01  1.4999999999999999e-01

CELLS 0 0


CELL_TYPES 0


POINT_DATA 33

VECTORS VertexNormals float

0.0000000000000000e+00 0.0000000000000000e+00 0.0000000000000000e+00 
0.0000000000000000e+00 0.0000000000000000e+00 0.0000000000000000e+00 
0.0000000000000000e+00 0.0000000000000000e+00 0.0000000000000000e+00 
0.0000000000000000e+00 0.0000000000000000e+00 0.0000000000000000e+00 
0.0000000000000000e+00 0.0000000000000000e+00 0.0000000000000000e+00 
0.0000000000000000e+00 0.0000000000000000e+00 0.0000000000000000e+00 
0.0000000000000000e+00 0.0000000000000000e+00 0.0000000000000000e+00 
0.0000000000000000e+00 0.0000000000000000e+00 0.0000000000000000e+00 
0.0000000000000000e+00 0.0000000000000000e+00 0.0000000000000000e+00 
0.0000000000000000e+00 0.0000000000000000e+00 0.0000000000000000e+00 
0.0000000000000000e+00 0.0000000000000000e+00 0.0000000000000000e+00 
0.0000000000000000e+00 0.0000000000000000e+00 0.0000000000000000e+00 
0.0000000000000000e+00 0.0000000000000000e+00 0.0000000000000000e+00 
0.0000000000000000e+00 0.0000000000000000e+00 0.0000000000000000e+00 
0.0000000000000000e+00 0.0000000000000000e+00 0.0000000000000000e+00 
0.0000000000000000e+00 0.0000000000000000e+00 0.0000000000000000e+00 
0.0000000000000000e+00 0.0000000000000000e+00 0.0000000000000000e+00 
0.0000000000000000e+00 0.0000000000000000e+00 0.0000000000000000e+00 
0.0000000000000000e+00 0.0000000000000000e+00 0.0000000000000000e+00 
0.0000000000000000e+00 0.0000000000000000e+00 0.0000000000000000e+00 
0.0000000000000000e+00 0.0000000000000000e+00 0.0000000000000000e+00 
0.0000000000000000e+00 0.0000000000000000e+00 0.0000000000000000e+00 
0.0000000000000000e+00 0.0000000000000000e+00 0.0000000000000000e+00 
0.0000000000000000e+00 0.0000000000000000e+00 0.0000000000000000e+00 
0.0000000000000000e+00 0.0000000000000000e+00 0.0000000000000000e+00 
0.0000000000000000e+00 0.0000000000000000e+00 0.0000000000000000e+00 
0.0000000000000000e+00 0.0000000000000000e+00 0.0000000000000000e+00 
0.0000000000000000e+00 0.0000000000000000e+00 0.0000000000000000e+00 
0.0000000000000000e+00 0.0000000000000000e+00 0.0000000000000000e+00 
0.0000000000000000e+00 0.0000000000000000e+00 0.0000000000000000e+00 
0.0000000000000000e+00 0.0000000000000000e+00 0.0000000000000000e+00 
0.0000000000000000e+00 0.0000000000000000e+00 0.0000000000000000e+00 
0.0000000000000000e+00 0.0000000000000000e+00 0.0000000000000000e+00 

VECTORS Stress float
2.1102480191078433e+02 -9.7306547475031984e+00 1.3714119286412479e-12 
2.1026613882683927e+02 -2.2311263419496569e+01 1.1910898371944677e-12 
2.0800870589659502e+02 -3.6819434194180040e+01 1.2413534954387542e-12 
2.0363020532911943e+02 -4.9612285843712932e+01 1.4563282248531632e-12 
1.9744007034118542e+02 -5.9985264234849048e+01 4.2370514566013786e-14 
1.8990862367962995e+02 -6.8268064919617544e+01 -4.5223854899111599e-12 
1.8148053016756731e+02 -7.4951265571802494e+01 -5.3626900865966005e-12 
1.7351547893744313e+02 -7.8563700368475551e+01 3.6438805224032641e-13 
1.6597927812439650e+02 -8.0222400680404803e+01 2.4979582229815183e-12 
1.5910867600670034e+02 -7.9877624396903627e+01 1.2896911238890316e-12 
1.5188240384608841e+02 -7.8725028373671179e+01 -6.5116972910087480e-13 
1.4406793956621902e+02 -7.6576533255271727e+01 -1.7582920411659925e-12 
1.3554003630979116e+02 -7.3272210794792443e+01 5.1954502645844796e-13 
1.2615237046107904e+02 -6.7717669403989873e+01 3.4988439659673759e-12 
1.1210049040007789e+02 -6.0194406453797136e+01 1.7622421896458996e-12 
-1.0725863826676312e+01 -1.9937215147460112e+01 -4.3165175712110422e-17 
-2.2630939237055280e+01 -4.1588045006397060e+01 2.0212752272986361e-16 
-3.0462924416804675e+01 -5.6237349245449849e+01 -1.5256883861936184e-16 
-9.3743321103901280e+01 4.8596306108986500e+00 -1.0336191330719967e-13 
-9.3400774983928784e+01 1.0940521144940908e+01 -1.9592573260684390e-13 
-9.2596340402294970e+01 1.8297002353012303e+01 -1.1887072946452022e-12 
-9.1598632342155966e+01 2.4688918724274206e+01 2.7538221932446336e-13 
-9.0519808773241706e+01 3.0012125652784245e+01 1.3862039886775572e-12 
-8.9175418147914584e+01 3.4962512249395857e+01 5.2289579595919811e-12 
-8.7787930519160028e+01 3.8849858685647163e+01 7.2936225386330234e-12 
-8.6443624035932331e+01 4.1496786209239005e+01 1.1176526671414481e-12 
-8.5199504853988188e+01 4.2667679873508561e+01 -2.1551359923173720e-12 
-8.3535461495984762e+01 4.3470644571728691e+01 -1.2451570639129528e-12 
-8.1660981187483884e+01 4.3480503127680031e+01 -7.4285972747536310e-13 
-7.9391817220290008e+01 4.3145670430314873e+01 -2.8493796504225851e-13 
-7.6872652886723245e+01 4.2059002863624201e+01 -4.9373116561739434e-13 
-7.4167156020065221e+01 4.0190036167932433e+01 -3.2304551331259258e-12 
-7.1407409642625765e+01 3.8788517343420779e+01 -2.5998004704693199e-12 

