# vtk DataFile Version 2.0

ASCII

DATASET UNSTRUCTURED_GRID

POINTS 33 float 

-5.0000000000000003e-02  3.3333333335000000e-02  1.4999999999999997e-01
-5.0000000000000003e-02  9.9999999985000018e-02  1.4999999999999999e-01
-5.0000000000000003e-02  1.6666666665000002e-01  1.4999999999999999e-01
-5.0000000000000003e-02  2.3333333334999998e-01  1.4999999999999999e-01
-5.0000000000000003e-02  2.9999999999999993e-01  1.4999999999999997e-01
-5.0000000000000003e-02  3.6666666665000003e-01  1.4999999999999999e-01
-5.0000000000000003e-02  4.3333333335000002e-01  1.4999999999999999e-01
-5.0000000000000003e-02  5.0000000000000000e-01  1.4999999999999997e-01
-5.0000000000000003e-02  5.6666666664999987e-01  1.4999999999999999e-01
-5.0000000000000003e-02  6.3333333334999986e-01  1.4999999999999999e-01
-5.0000000000000003e-02  6.9999999999999984e-01  1.4999999999999997e-01
-5.0000000000000003e-02  7.6666666664999994e-01  1.4999999999999999e-01
-4.9999999999999996e-02  8.3333333334999982e-01  1.4999999999999999e-01
-5.0000000000000003e-02  8.9999999999999991e-01  1.4999999999999997e-01
-5.0000000000000003e-02  9.6666666664999990e-01  1.4999999999999999e-01
-3.3333333335000000e-02  9.9999999999999978e-01  1.4999999999999997e-01
0.0000000000000000e+00  1.0000000000000000e+00  1.4999999999999997e-01
3.3333333335000007e-02  1.0000000000000000e+00  1.4999999999999999e-01
5.0000000000000003e-02  3.3333333335000000e-02  1.4999999999999999e-01
5.0000000000000003e-02  9.9999999985000004e-02  1.4999999999999999e-01
5.0000000000000003e-02  1.6666666664999999e-01  1.4999999999999999e-01
5.0000000000000003e-02  2.3333333334999998e-01  1.4999999999999999e-01
5.0000000000000003e-02  2.9999999999999993e-01  1.4999999999999997e-01
5.0000000000000003e-02  3.6666666665000003e-01  1.4999999999999999e-01
5.0000000000000003e-02  4.3333333334999991e-01  1.4999999999999999e-01
5.0000000000000003e-02  5.0000000000000000e-01  1.4999999999999997e-01
5.0000000000000003e-02  5.6666666664999987e-01  1.4999999999999999e-01
5.0000000000000003e-02  6.3333333334999997e-01  1.4999999999999999e-01
5.0000000000000003e-02  6.9999999999999984e-01  1.4999999999999997e-01
5.0000000000000003e-02  7.6666666664999994e-01  1.4999999999999999e-01
5.0000000000000003e-02  8.3333333334999993e-01  1.4999999999999999e-01
5.0000000000000010e-02  8.9999999999999991e-01  1.4999999999999999e-01
5.0000000000000003e-02  9.6666666664999990e-01  1.4999999999999999e-01

CELLS 0 0


CELL_TYPES 0


POINT_DATA 33

VECTORS VertexNormals float

0.0000000000000000e+00 0.0000000000000000e+00 0.0000000000000000e+00 
0.0000000000000000e+00 0.0000000000000000e+00 0.0000000000000000e+00 
0.0000000000000000e+00 0.0000000000000000e+00 0.0000000000000000e+00 
0.0000000000000000e+00 0.0000000000000000e+00 0.0000000000000000e+00 
0.0000000000000000e+00 0.0000000000000000e+00 0.0000000000000000e+00 
0.0000000000000000e+00 0.0000000000000000e+00 0.0000000000000000e+00 
0.0000000000000000e+00 0.0000000000000000e+00 0.0000000000000000e+00 
0.0000000000000000e+00 0.0000000000000000e+00 0.0000000000000000e+00 
0.0000000000000000e+00 0.0000000000000000e+00 0.0000000000000000e+00 
0.0000000000000000e+00 0.0000000000000000e+00 0.0000000000000000e+00 
0.0000000000000000e+00 0.0000000000000000e+00 0.0000000000000000e+00 
0.0000000000000000e+00 0.0000000000000000e+00 0.0000000000000000e+00 
0.0000000000000000e+00 0.0000000000000000e+00 0.0000000000000000e+00 
0.0000000000000000e+00 0.0000000000000000e+00 0.0000000000000000e+00 
0.0000000000000000e+00 0.0000000000000000e+00 0.0000000000000000e+00 
0.0000000000000000e+00 0.0000000000000000e+00 0.0000000000000000e+00 
0.0000000000000000e+00 0.0000000000000000e+00 0.0000000000000000e+00 
0.0000000000000000e+00 0.0000000000000000e+00 0.0000000000000000e+00 
0.0000000000000000e+00 0.0000000000000000e+00 0.0000000000000000e+00 
0.0000000000000000e+00 0.0000000000000000e+00 0.0000000000000000e+00 
0.0000000000000000e+00 0.0000000000000000e+00 0.0000000000000000e+00 
0.0000000000000000e+00 0.0000000000000000e+00 0.0000000000000000e+00 
0.0000000000000000e+00 0.0000000000000000e+00 0.0000000000000000e+00 
0.0000000000000000e+00 0.0000000000000000e+00 0.0000000000000000e+00 
0.0000000000000000e+00 0.0000000000000000e+00 0.0000000000000000e+00 
0.0000000000000000e+00 0.0000000000000000e+00 0.0000000000000000e+00 
0.0000000000000000e+00 0.0000000000000000e+00 0.0000000000000000e+00 
0.0000000000000000e+00 0.0000000000000000e+00 0.0000000000000000e+00 
0.0000000000000000e+00 0.0000000000000000e+00 0.0000000000000000e+00 
0.0000000000000000e+00 0.0000000000000000e+00 0.0000000000000000e+00 
0.0000000000000000e+00 0.0000000000000000e+00 0.0000000000000000e+00 
0.0000000000000000e+00 0.0000000000000000e+00 0.0000000000000000e+00 
0.0000000000000000e+00 0.0000000000000000e+00 0.0000000000000000e+00 

VECTORS Stress float
1.1513754971909792e+02 -5.8353624251353731e+00 -5.4906826135362441e-13 
1.1510941294985726e+02 -1.1021301009309481e+01 -7.6549766920664125e-13 
1.1471504392416350e+02 -1.5220155220306673e+01 3.0008609310327800e-13 
1.1390533902079940e+02 -1.7504377474817471e+01 1.9072175879928060e-12 
1.1282667562368856e+02 -1.7256182515853439e+01 1.3767539124925398e-12 
1.1139276166986672e+02 -1.5641297357239241e+01 -1.7244170417058295e-13 
1.0912656378091013e+02 -1.4752050181794296e+01 -2.3982812296454613e-13 
1.0602944133984462e+02 -1.3913056249684274e+01 4.5394007769618453e-13 
1.0217052141424277e+02 -1.2380818677700056e+01 1.7314383603358796e-12 
9.7277446354453531e+01 -1.0896379283283437e+01 1.2092845171094414e-12 
9.1259219518529179e+01 -8.9776253673075725e+00 -5.0163939663456340e-13 
8.3296387381804195e+01 -7.3598384174449620e+00 -1.3773441637773602e-12 
7.2198742072802688e+01 -6.0333238474042323e+00 -7.1899836161189048e-13 
5.5910129532521125e+01 -4.3566836718433173e+00 2.4741810021512569e-12 
2.7929795455244992e+01 -2.0009656412574075e+00 2.2659475064777065e-12 
1.0405956072243868e+01 1.1857039262355300e+02 2.0301452288691107e-16 
8.5423393418987477e+00 9.9044564240446661e+01 8.2269083822058101e-20 
6.6077409005787500e+00 7.9182370512737393e+01 -7.9591895408293297e-17 
4.8729554331650924e+01 -2.6041358901948071e+00 2.1429082183641456e-13 
4.8378359717909049e+01 -5.0043659412919519e+00 5.4120211581935177e-13 
4.8347001601443473e+01 -6.6607824732007570e+00 -2.6521875042205007e-13 
4.8901391615708988e+01 -7.5757570963288039e+00 -1.5605684891022975e-12 
5.0421357130776954e+01 -7.5980800760851528e+00 -9.6779260645491638e-13 
5.2924897718513549e+01 -7.2256695873048002e+00 5.7243029674187157e-13 
5.5815025118484407e+01 -7.4898256782552171e+00 1.0243476577557533e-12 
5.8953274968524205e+01 -7.5364978207757902e+00 4.4536617966198303e-13 
6.2039542934541814e+01 -7.3679182869868800e+00 -1.6471039873178318e-12 
6.4734098953978290e+01 -7.1186057523550010e+00 -1.6423419779144877e-12 
6.6944117734229522e+01 -6.4651171266910943e+00 8.3458111171618649e-13 
6.8254749426375838e+01 -6.0138036191509485e+00 1.8122419051230967e-12 
6.8571171117772934e+01 -5.6914226775628070e+00 1.0290430054319179e-12 
6.7981515504578212e+01 -5.5622652157190222e+00 -5.6513540490367381e-13 
6.6682963085588099e+01 -5.3860933793933636e+00 -6.3094715503487827e-13 

