# vtk DataFile Version 2.0

ASCII

DATASET UNSTRUCTURED_GRID

POINTS 33 float 

-5.0000000000000003e-02  3.3333333335000000e-02  1.4999999999999997e-01
-5.0000000000000003e-02  9.9999999985000018e-02  1.4999999999999999e-01
-5.0000000000000003e-02  1.6666666665000002e-01  1.4999999999999999e-01
-5.0000000000000003e-02  2.3333333334999998e-01  1.4999999999999999e-01
-5.0000000000000003e-02  2.9999999999999993e-01  1.4999999999999997e-01
-5.0000000000000003e-02  3.6666666665000003e-01  1.4999999999999999e-01
-5.0000000000000003e-02  4.3333333335000002e-01  1.4999999999999999e-01
-5.0000000000000003e-02  5.0000000000000000e-01  1.4999999999999997e-01
-5.0000000000000003e-02  5.6666666664999987e-01  1.4999999999999999e-01
-5.0000000000000003e-02  6.3333333334999986e-01  1.4999999999999999e-01
-5.0000000000000003e-02  6.9999999999999984e-01  1.4999999999999997e-01
-5.0000000000000003e-02  7.6666666664999994e-01  1.4999999999999999e-01
-4.9999999999999996e-02  8.3333333334999982e-01  1.4999999999999999e-01
-5.0000000000000003e-02  8.9999999999999991e-01  1.4999999999999997e-01
-5.0000000000000003e-02  9.6666666664999990e-01  1.4999999999999999e-01
-3.3333333335000000e-02  9.9999999999999978e-01  1.4999999999999997e-01
0.0000000000000000e+00  1.0000000000000000e+00  1.4999999999999997e-01
3.3333333335000007e-02  1.0000000000000000e+00  1.4999999999999999e-01
5.0000000000000003e-02  3.3333333335000000e-02  1.4999999999999999e-01
5.0000000000000003e-02  9.9999999985000004e-02  1.4999999999999999e-01
5.0000000000000003e-02  1.6666666664999999e-01  1.4999999999999999e-01
5.0000000000000003e-02  2.3333333334999998e-01  1.4999999999999999e-01
5.0000000000000003e-02  2.9999999999999993e-01  1.4999999999999997e-01
5.0000000000000003e-02  3.6666666665000003e-01  1.4999999999999999e-01
5.0000000000000003e-02  4.3333333334999991e-01  1.4999999999999999e-01
5.0000000000000003e-02  5.0000000000000000e-01  1.4999999999999997e-01
5.0000000000000003e-02  5.6666666664999987e-01  1.4999999999999999e-01
5.0000000000000003e-02  6.3333333334999997e-01  1.4999999999999999e-01
5.0000000000000003e-02  6.9999999999999984e-01  1.4999999999999997e-01
5.0000000000000003e-02  7.6666666664999994e-01  1.4999999999999999e-01
5.0000000000000003e-02  8.3333333334999993e-01  1.4999999999999999e-01
5.0000000000000010e-02  8.9999999999999991e-01  1.4999999999999999e-01
5.0000000000000003e-02  9.6666666664999990e-01  1.4999999999999999e-01

CELLS 0 0


CELL_TYPES 0


POINT_DATA 33

VECTORS VertexNormals float

0.0000000000000000e+00 0.0000000000000000e+00 0.0000000000000000e+00 
0.0000000000000000e+00 0.0000000000000000e+00 0.0000000000000000e+00 
0.0000000000000000e+00 0.0000000000000000e+00 0.0000000000000000e+00 
0.0000000000000000e+00 0.0000000000000000e+00 0.0000000000000000e+00 
0.0000000000000000e+00 0.0000000000000000e+00 0.0000000000000000e+00 
0.0000000000000000e+00 0.0000000000000000e+00 0.0000000000000000e+00 
0.0000000000000000e+00 0.0000000000000000e+00 0.0000000000000000e+00 
0.0000000000000000e+00 0.0000000000000000e+00 0.0000000000000000e+00 
0.0000000000000000e+00 0.0000000000000000e+00 0.0000000000000000e+00 
0.0000000000000000e+00 0.0000000000000000e+00 0.0000000000000000e+00 
0.0000000000000000e+00 0.0000000000000000e+00 0.0000000000000000e+00 
0.0000000000000000e+00 0.0000000000000000e+00 0.0000000000000000e+00 
0.0000000000000000e+00 0.0000000000000000e+00 0.0000000000000000e+00 
0.0000000000000000e+00 0.0000000000000000e+00 0.0000000000000000e+00 
0.0000000000000000e+00 0.0000000000000000e+00 0.0000000000000000e+00 
0.0000000000000000e+00 0.0000000000000000e+00 0.0000000000000000e+00 
0.0000000000000000e+00 0.0000000000000000e+00 0.0000000000000000e+00 
0.0000000000000000e+00 0.0000000000000000e+00 0.0000000000000000e+00 
0.0000000000000000e+00 0.0000000000000000e+00 0.0000000000000000e+00 
0.0000000000000000e+00 0.0000000000000000e+00 0.0000000000000000e+00 
0.0000000000000000e+00 0.0000000000000000e+00 0.0000000000000000e+00 
0.0000000000000000e+00 0.0000000000000000e+00 0.0000000000000000e+00 
0.0000000000000000e+00 0.0000000000000000e+00 0.0000000000000000e+00 
0.0000000000000000e+00 0.0000000000000000e+00 0.0000000000000000e+00 
0.0000000000000000e+00 0.0000000000000000e+00 0.0000000000000000e+00 
0.0000000000000000e+00 0.0000000000000000e+00 0.0000000000000000e+00 
0.0000000000000000e+00 0.0000000000000000e+00 0.0000000000000000e+00 
0.0000000000000000e+00 0.0000000000000000e+00 0.0000000000000000e+00 
0.0000000000000000e+00 0.0000000000000000e+00 0.0000000000000000e+00 
0.0000000000000000e+00 0.0000000000000000e+00 0.0000000000000000e+00 
0.0000000000000000e+00 0.0000000000000000e+00 0.0000000000000000e+00 
0.0000000000000000e+00 0.0000000000000000e+00 0.0000000000000000e+00 
0.0000000000000000e+00 0.0000000000000000e+00 0.0000000000000000e+00 

VECTORS Stress float
1.2029824867650981e+02 -5.0310177119366069e+00 -7.5514780618685499e-13 
1.2022453167510595e+02 -1.1265503628087599e+01 -1.4009649959779694e-12 
1.1982716130877067e+02 -1.5648575202863807e+01 -4.2543651367917813e-13 
1.1904076101081810e+02 -1.8066599195019261e+01 1.5716538124340518e-12 
1.1756918180479926e+02 -1.9619163602465790e+01 1.3441651433417009e-12 
1.1549844200245975e+02 -1.9718685038072422e+01 -1.2209648400654223e-13 
1.1284923061904355e+02 -1.8771952662947385e+01 -5.0354231868814676e-13 
1.0982371922714871e+02 -1.6585640984485394e+01 -3.4502928109725723e-13 
1.0590774702638765e+02 -1.4889679269825915e+01 9.0884905675365588e-14 
1.0064133756684949e+02 -1.3928157678475813e+01 5.5708446722199577e-14 
9.3852317502681302e+01 -1.3006184708473025e+01 -9.0438021443600103e-13 
8.5394792216476162e+01 -1.1472431574297081e+01 -8.3854018052743833e-13 
7.4374656986404730e+01 -9.5271339892556171e+00 1.1146644605629316e-12 
5.8618471184663242e+01 -7.0344833313774879e+00 2.4207846462688960e-12 
3.1895270278126578e+01 -3.6650314331357041e+00 1.3332681507277139e-12 
1.3682902434110476e+01 1.0813987795744617e+02 1.6512185420865677e-16 
1.1164226316886889e+01 8.8456079664930286e+01 -2.1231744263212055e-19 
8.8037706735141033e+00 6.9465765564630246e+01 1.2622796704461506e-16 
3.7487163764438719e+01 -1.7320200289285366e+00 -6.2959495375702261e-13 
3.7167416707252698e+01 -3.6860719641256954e+00 -1.2560023579361010e-13 
3.7149256643270121e+01 -5.0481303877846715e+00 4.0808709627597697e-13 
3.7711595175231579e+01 -5.8676847785568631e+00 -2.1589703458160585e-12 
3.8987067240000478e+01 -6.5186445564407700e+00 -2.0624695764659962e-12 
4.0993223898460933e+01 -6.9760658457903109e+00 -5.9609934575825708e-13 
4.3720538852751815e+01 -7.0540042370492957e+00 -4.6265091073302162e-13 
4.6987834731502119e+01 -6.9430741156868221e+00 -4.7681692660123004e-13 
5.0306422249348628e+01 -6.8594617282583874e+00 -1.2894786430559770e-12 
5.2998186871423727e+01 -7.3001359159839785e+00 -6.7824877892675093e-13 
5.5159987160996579e+01 -7.5446976174426466e+00 1.5885036454638674e-12 
5.6812454294628978e+01 -7.5324499961817573e+00 1.8516060908682615e-12 
5.7706719080284330e+01 -7.3715204597921185e+00 -1.1376415028926210e-12 
5.7819229346704205e+01 -7.0275653683634385e+00 -2.1552006877867509e-12 
5.6904693837021156e+01 -7.2003137517252318e+00 -7.7656334424179450e-13 

