# vtk DataFile Version 2.0

ASCII

DATASET UNSTRUCTURED_GRID

POINTS 33 float 

-5.0000000000000003e-02  3.3333333335000000e-02  1.4999999999999997e-01
-5.0000000000000003e-02  9.9999999985000018e-02  1.4999999999999999e-01
-5.0000000000000003e-02  1.6666666665000002e-01  1.4999999999999999e-01
-5.0000000000000003e-02  2.3333333334999998e-01  1.4999999999999999e-01
-5.0000000000000003e-02  2.9999999999999993e-01  1.4999999999999997e-01
-5.0000000000000003e-02  3.6666666665000003e-01  1.4999999999999999e-01
-5.0000000000000003e-02  4.3333333335000002e-01  1.4999999999999999e-01
-5.0000000000000003e-02  5.0000000000000000e-01  1.4999999999999997e-01
-5.0000000000000003e-02  5.6666666664999987e-01  1.4999999999999999e-01
-5.0000000000000003e-02  6.3333333334999986e-01  1.4999999999999999e-01
-5.0000000000000003e-02  6.9999999999999984e-01  1.4999999999999997e-01
-5.0000000000000003e-02  7.6666666664999994e-01  1.4999999999999999e-01
-4.9999999999999996e-02  8.3333333334999982e-01  1.4999999999999999e-01
-5.0000000000000003e-02  8.9999999999999991e-01  1.4999999999999997e-01
-5.0000000000000003e-02  9.6666666664999990e-01  1.4999999999999999e-01
-3.3333333335000000e-02  9.9999999999999978e-01  1.4999999999999997e-01
0.0000000000000000e+00  1.0000000000000000e+00  1.4999999999999997e-01
3.3333333335000007e-02  1.0000000000000000e+00  1.4999999999999999e-01
5.0000000000000003e-02  3.3333333335000000e-02  1.4999999999999999e-01
5.0000000000000003e-02  9.9999999985000004e-02  1.4999999999999999e-01
5.0000000000000003e-02  1.6666666664999999e-01  1.4999999999999999e-01
5.0000000000000003e-02  2.3333333334999998e-01  1.4999999999999999e-01
5.0000000000000003e-02  2.9999999999999993e-01  1.4999999999999997e-01
5.0000000000000003e-02  3.6666666665000003e-01  1.4999999999999999e-01
5.0000000000000003e-02  4.3333333334999991e-01  1.4999999999999999e-01
5.0000000000000003e-02  5.0000000000000000e-01  1.4999999999999997e-01
5.0000000000000003e-02  5.6666666664999987e-01  1.4999999999999999e-01
5.0000000000000003e-02  6.3333333334999997e-01  1.4999999999999999e-01
5.0000000000000003e-02  6.9999999999999984e-01  1.4999999999999997e-01
5.0000000000000003e-02  7.6666666664999994e-01  1.4999999999999999e-01
5.0000000000000003e-02  8.3333333334999993e-01  1.4999999999999999e-01
5.0000000000000010e-02  8.9999999999999991e-01  1.4999999999999999e-01
5.0000000000000003e-02  9.6666666664999990e-01  1.4999999999999999e-01

CELLS 0 0


CELL_TYPES 0


POINT_DATA 33

VECTORS VertexNormals float

0.0000000000000000e+00 0.0000000000000000e+00 0.0000000000000000e+00 
0.0000000000000000e+00 0.0000000000000000e+00 0.0000000000000000e+00 
0.0000000000000000e+00 0.0000000000000000e+00 0.0000000000000000e+00 
0.0000000000000000e+00 0.0000000000000000e+00 0.0000000000000000e+00 
0.0000000000000000e+00 0.0000000000000000e+00 0.0000000000000000e+00 
0.0000000000000000e+00 0.0000000000000000e+00 0.0000000000000000e+00 
0.0000000000000000e+00 0.0000000000000000e+00 0.0000000000000000e+00 
0.0000000000000000e+00 0.0000000000000000e+00 0.0000000000000000e+00 
0.0000000000000000e+00 0.0000000000000000e+00 0.0000000000000000e+00 
0.0000000000000000e+00 0.0000000000000000e+00 0.0000000000000000e+00 
0.0000000000000000e+00 0.0000000000000000e+00 0.0000000000000000e+00 
0.0000000000000000e+00 0.0000000000000000e+00 0.0000000000000000e+00 
0.0000000000000000e+00 0.0000000000000000e+00 0.0000000000000000e+00 
0.0000000000000000e+00 0.0000000000000000e+00 0.0000000000000000e+00 
0.0000000000000000e+00 0.0000000000000000e+00 0.0000000000000000e+00 
0.0000000000000000e+00 0.0000000000000000e+00 0.0000000000000000e+00 
0.0000000000000000e+00 0.0000000000000000e+00 0.0000000000000000e+00 
0.0000000000000000e+00 0.0000000000000000e+00 0.0000000000000000e+00 
0.0000000000000000e+00 0.0000000000000000e+00 0.0000000000000000e+00 
0.0000000000000000e+00 0.0000000000000000e+00 0.0000000000000000e+00 
0.0000000000000000e+00 0.0000000000000000e+00 0.0000000000000000e+00 
0.0000000000000000e+00 0.0000000000000000e+00 0.0000000000000000e+00 
0.0000000000000000e+00 0.0000000000000000e+00 0.0000000000000000e+00 
0.0000000000000000e+00 0.0000000000000000e+00 0.0000000000000000e+00 
0.0000000000000000e+00 0.0000000000000000e+00 0.0000000000000000e+00 
0.0000000000000000e+00 0.0000000000000000e+00 0.0000000000000000e+00 
0.0000000000000000e+00 0.0000000000000000e+00 0.0000000000000000e+00 
0.0000000000000000e+00 0.0000000000000000e+00 0.0000000000000000e+00 
0.0000000000000000e+00 0.0000000000000000e+00 0.0000000000000000e+00 
0.0000000000000000e+00 0.0000000000000000e+00 0.0000000000000000e+00 
0.0000000000000000e+00 0.0000000000000000e+00 0.0000000000000000e+00 
0.0000000000000000e+00 0.0000000000000000e+00 0.0000000000000000e+00 
0.0000000000000000e+00 0.0000000000000000e+00 0.0000000000000000e+00 

VECTORS Stress float
1.1032354816476357e+02 -3.4808766927754160e+00 -3.5898094030807016e-13 
1.1030071468802890e+02 -8.4677680039515835e+00 -5.1519118034639689e-13 
1.0976226283223485e+02 -1.3109896953049560e+01 -3.7557025268974571e-13 
1.0904905935640609e+02 -1.4903824628007611e+01 -5.5803410704558977e-13 
1.0808387658027266e+02 -1.4959542864811727e+01 -3.3828967516749996e-13 
1.0671038889598626e+02 -1.4049923434273923e+01 -1.2307199173306384e-12 
1.0490424546362092e+02 -1.2438648313980988e+01 -1.3728320841622924e-12 
1.0273723404579711e+02 -9.6474505251739373e+00 4.7367201123628997e-14 
9.9745824079753675e+01 -6.9843439922609356e+00 -2.4085901994677567e-15 
9.5560767775109838e+01 -5.0396071493784413e+00 -1.9824511846462715e-13 
9.0067257520148161e+01 -3.0046361889183220e+00 2.2637304432119988e-13 
8.2494019077777892e+01 -1.4020910671376781e+00 5.1361830397565400e-13 
7.1347354802128336e+01 -9.9490588085843124e-01 2.2984421199829700e-13 
5.4633577959229243e+01 -1.8436766437127777e-01 -1.4381661045873685e-12 
2.4225455902454687e+01 6.8366988590711886e-02 -1.3732028426907444e-12 
2.0373953241837532e+00 1.3601409968642830e+02 8.5976671398384245e-17 
1.9970185954344646e+00 1.1696161873320531e+02 2.0745874870445460e-19 
1.5033082608040378e+00 9.4893937560067769e+01 7.9767950730626515e-17 
6.5740611371254943e+01 -2.1527297869250410e+00 5.6938632708073008e-13 
6.5339504830054224e+01 -5.3976270978120482e+00 8.5243794986623512e-13 
6.5206371885443559e+01 -8.0456347889578392e+00 4.1537940556201459e-13 
6.5883707583717921e+01 -9.1474277162032855e+00 5.4603680375316919e-13 
6.7584880263009168e+01 -9.2449211331837056e+00 4.1423100879312531e-13 
7.0139726885857257e+01 -9.0460752974604848e+00 5.8224970704771695e-13 
7.3434434169578481e+01 -8.4165571521661882e+00 1.0634589135663347e-12 
7.7236527422254824e+01 -6.9781246022293075e+00 7.3269024684363491e-13 
8.0768715266424508e+01 -5.4298489747581380e+00 2.1252262518886626e-13 
8.3405508969196646e+01 -4.3146377064115278e+00 -4.0514085452767227e-14 
8.5162919151061686e+01 -2.7144661924558080e+00 -1.3006949993232319e-13 
8.5682696585416551e+01 -1.5499966643699312e+00 -5.1173755231158984e-13 
8.4969195535351375e+01 -1.1428629901380600e+00 -3.0081720492777777e-13 
8.3396514187870878e+01 -7.3718994847515795e-01 -2.4867588326946640e-13 
8.1038796234600184e+01 -9.5611215092940427e-01 -3.3125699993345874e-13 

