# vtk DataFile Version 2.0

ASCII

DATASET UNSTRUCTURED_GRID

POINTS 33 float 

-5.0000000000000003e-02  3.3333333335000000e-02  1.4999999999999997e-01
-5.0000000000000003e-02  9.9999999985000018e-02  1.4999999999999999e-01
-5.0000000000000003e-02  1.6666666665000002e-01  1.4999999999999999e-01
-5.0000000000000003e-02  2.3333333334999998e-01  1.4999999999999999e-01
-5.0000000000000003e-02  2.9999999999999993e-01  1.4999999999999997e-01
-5.0000000000000003e-02  3.6666666665000003e-01  1.4999999999999999e-01
-5.0000000000000003e-02  4.3333333335000002e-01  1.4999999999999999e-01
-5.0000000000000003e-02  5.0000000000000000e-01  1.4999999999999997e-01
-5.0000000000000003e-02  5.6666666664999987e-01  1.4999999999999999e-01
-5.0000000000000003e-02  6.3333333334999986e-01  1.4999999999999999e-01
-5.0000000000000003e-02  6.9999999999999984e-01  1.4999999999999997e-01
-5.0000000000000003e-02  7.6666666664999994e-01  1.4999999999999999e-01
-4.9999999999999996e-02  8.3333333334999982e-01  1.4999999999999999e-01
-5.0000000000000003e-02  8.9999999999999991e-01  1.4999999999999997e-01
-5.0000000000000003e-02  9.6666666664999990e-01  1.4999999999999999e-01
-3.3333333335000000e-02  9.9999999999999978e-01  1.4999999999999997e-01
0.0000000000000000e+00  1.0000000000000000e+00  1.4999999999999997e-01
3.3333333335000007e-02  1.0000000000000000e+00  1.4999999999999999e-01
5.0000000000000003e-02  3.3333333335000000e-02  1.4999999999999999e-01
5.0000000000000003e-02  9.9999999985000004e-02  1.4999999999999999e-01
5.0000000000000003e-02  1.6666666664999999e-01  1.4999999999999999e-01
5.0000000000000003e-02  2.3333333334999998e-01  1.4999999999999999e-01
5.0000000000000003e-02  2.9999999999999993e-01  1.4999999999999997e-01
5.0000000000000003e-02  3.6666666665000003e-01  1.4999999999999999e-01
5.0000000000000003e-02  4.3333333334999991e-01  1.4999999999999999e-01
5.0000000000000003e-02  5.0000000000000000e-01  1.4999999999999997e-01
5.0000000000000003e-02  5.6666666664999987e-01  1.4999999999999999e-01
5.0000000000000003e-02  6.3333333334999997e-01  1.4999999999999999e-01
5.0000000000000003e-02  6.9999999999999984e-01  1.4999999999999997e-01
5.0000000000000003e-02  7.6666666664999994e-01  1.4999999999999999e-01
5.0000000000000003e-02  8.3333333334999993e-01  1.4999999999999999e-01
5.0000000000000010e-02  8.9999999999999991e-01  1.4999999999999999e-01
5.0000000000000003e-02  9.6666666664999990e-01  1.4999999999999999e-01

CELLS 0 0


CELL_TYPES 0


POINT_DATA 33

VECTORS VertexNormals float

0.0000000000000000e+00 0.0000000000000000e+00 0.0000000000000000e+00 
0.0000000000000000e+00 0.0000000000000000e+00 0.0000000000000000e+00 
0.0000000000000000e+00 0.0000000000000000e+00 0.0000000000000000e+00 
0.0000000000000000e+00 0.0000000000000000e+00 0.0000000000000000e+00 
0.0000000000000000e+00 0.0000000000000000e+00 0.0000000000000000e+00 
0.0000000000000000e+00 0.0000000000000000e+00 0.0000000000000000e+00 
0.0000000000000000e+00 0.0000000000000000e+00 0.0000000000000000e+00 
0.0000000000000000e+00 0.0000000000000000e+00 0.0000000000000000e+00 
0.0000000000000000e+00 0.0000000000000000e+00 0.0000000000000000e+00 
0.0000000000000000e+00 0.0000000000000000e+00 0.0000000000000000e+00 
0.0000000000000000e+00 0.0000000000000000e+00 0.0000000000000000e+00 
0.0000000000000000e+00 0.0000000000000000e+00 0.0000000000000000e+00 
0.0000000000000000e+00 0.0000000000000000e+00 0.0000000000000000e+00 
0.0000000000000000e+00 0.0000000000000000e+00 0.0000000000000000e+00 
0.0000000000000000e+00 0.0000000000000000e+00 0.0000000000000000e+00 
0.0000000000000000e+00 0.0000000000000000e+00 0.0000000000000000e+00 
0.0000000000000000e+00 0.0000000000000000e+00 0.0000000000000000e+00 
0.0000000000000000e+00 0.0000000000000000e+00 0.0000000000000000e+00 
0.0000000000000000e+00 0.0000000000000000e+00 0.0000000000000000e+00 
0.0000000000000000e+00 0.0000000000000000e+00 0.0000000000000000e+00 
0.0000000000000000e+00 0.0000000000000000e+00 0.0000000000000000e+00 
0.0000000000000000e+00 0.0000000000000000e+00 0.0000000000000000e+00 
0.0000000000000000e+00 0.0000000000000000e+00 0.0000000000000000e+00 
0.0000000000000000e+00 0.0000000000000000e+00 0.0000000000000000e+00 
0.0000000000000000e+00 0.0000000000000000e+00 0.0000000000000000e+00 
0.0000000000000000e+00 0.0000000000000000e+00 0.0000000000000000e+00 
0.0000000000000000e+00 0.0000000000000000e+00 0.0000000000000000e+00 
0.0000000000000000e+00 0.0000000000000000e+00 0.0000000000000000e+00 
0.0000000000000000e+00 0.0000000000000000e+00 0.0000000000000000e+00 
0.0000000000000000e+00 0.0000000000000000e+00 0.0000000000000000e+00 
0.0000000000000000e+00 0.0000000000000000e+00 0.0000000000000000e+00 
0.0000000000000000e+00 0.0000000000000000e+00 0.0000000000000000e+00 
0.0000000000000000e+00 0.0000000000000000e+00 0.0000000000000000e+00 

VECTORS Stress float
1.1408303061108137e+02 -5.4469545067301324e+00 -4.8679699481515174e-13 
1.1391740588094221e+02 -1.1668395447880524e+01 -7.6564607171071491e-13 
1.1345006353202169e+02 -1.5325272372629961e+01 -1.0321025685635095e-13 
1.1294505228770974e+02 -1.5733860498164356e+01 2.7103198408417194e-13 
1.1194815404935215e+02 -1.5680059563239757e+01 9.4519162470967085e-14 
1.1032125489343905e+02 -1.5458366374177251e+01 -1.6272565334488592e-15 
1.0816298151165306e+02 -1.4376644912696939e+01 -1.9462452049444320e-13 
1.0532815363036661e+02 -1.2776030860831280e+01 -8.4009778667719564e-14 
1.0165317968485087e+02 -1.1105573850053634e+01 5.0644272432837263e-13 
9.7144622960024279e+01 -8.8512522934155200e+00 3.9780269689675522e-13 
9.1090875313542128e+01 -7.4039488220372656e+00 2.2573065263484529e-13 
8.3187265964056635e+01 -5.7957482310767823e+00 8.2158054179607371e-13 
7.2178913304388061e+01 -4.5752332240768219e+00 8.8083616994029768e-13 
5.5709682604922911e+01 -3.2260684434786135e+00 -4.8836164601373039e-13 
2.7063750080943741e+01 -1.3729481787918087e+00 -7.5802982421373216e-13 
7.8272864496964072e+00 1.2292676009831622e+02 1.6247341643893912e-16 
6.4994729587774120e+00 1.0358899361749356e+02 -3.4792384334100024e-17 
5.4090631008145227e+00 8.3213357623581757e+01 -2.8014472904629987e-17 
5.3301640001609506e+01 -2.8035005849590089e+00 1.9892926279179735e-13 
5.2850732944710835e+01 -5.7645401941515972e+00 2.7506672036382108e-13 
5.2768047673826153e+01 -7.2426072859038522e+00 4.3199122804917603e-14 
5.3502042768033064e+01 -7.5382798801410180e+00 -9.2427846593236969e-13 
5.5130284611818070e+01 -7.6127328151884148e+00 -8.9570827085393625e-13 
5.7444711264306051e+01 -8.0179150475527052e+00 1.2379236209216522e-13 
6.0464441342710465e+01 -7.8246977952937682e+00 1.2116065799886513e-13 
6.3706025540182459e+01 -7.5682801929079977e+00 -2.5710128981253115e-13 
6.6900582486039823e+01 -7.0204125995293829e+00 -1.5020697496461149e-13 
6.9704791569980003e+01 -6.2396896062698168e+00 1.0396430305911827e-13 
7.1701863197445277e+01 -5.6059378164712896e+00 -4.5402631328468095e-13 
7.2764702276263833e+01 -5.1077639590244521e+00 -1.1988455326756528e-12 
7.2876936940461832e+01 -4.6472063885612807e+00 -1.0700069523995034e-12 
7.2027981677680557e+01 -4.5122299906596544e+00 -7.0828107750255134e-13 
7.0436578890194966e+01 -4.4903596547655500e+00 -3.8990022559050585e-13 

