# vtk DataFile Version 2.0

ASCII

DATASET UNSTRUCTURED_GRID

POINTS 33 float 

-5.0000000000000003e-02  3.3333333335000000e-02  1.4999999999999997e-01
-5.0000000000000003e-02  9.9999999985000018e-02  1.4999999999999999e-01
-5.0000000000000003e-02  1.6666666665000002e-01  1.4999999999999999e-01
-5.0000000000000003e-02  2.3333333334999998e-01  1.4999999999999999e-01
-5.0000000000000003e-02  2.9999999999999993e-01  1.4999999999999997e-01
-5.0000000000000003e-02  3.6666666665000003e-01  1.4999999999999999e-01
-5.0000000000000003e-02  4.3333333335000002e-01  1.4999999999999999e-01
-5.0000000000000003e-02  5.0000000000000000e-01  1.4999999999999997e-01
-5.0000000000000003e-02  5.6666666664999987e-01  1.4999999999999999e-01
-5.0000000000000003e-02  6.3333333334999986e-01  1.4999999999999999e-01
-5.0000000000000003e-02  6.9999999999999984e-01  1.4999999999999997e-01
-5.0000000000000003e-02  7.6666666664999994e-01  1.4999999999999999e-01
-4.9999999999999996e-02  8.3333333334999982e-01  1.4999999999999999e-01
-5.0000000000000003e-02  8.9999999999999991e-01  1.4999999999999997e-01
-5.0000000000000003e-02  9.6666666664999990e-01  1.4999999999999999e-01
-3.3333333335000000e-02  9.9999999999999978e-01  1.4999999999999997e-01
0.0000000000000000e+00  1.0000000000000000e+00  1.4999999999999997e-01
3.3333333335000007e-02  1.0000000000000000e+00  1.4999999999999999e-01
5.0000000000000003e-02  3.3333333335000000e-02  1.4999999999999999e-01
5.0000000000000003e-02  9.9999999985000004e-02  1.4999999999999999e-01
5.0000000000000003e-02  1.6666666664999999e-01  1.4999999999999999e-01
5.0000000000000003e-02  2.3333333334999998e-01  1.4999999999999999e-01
5.0000000000000003e-02  2.9999999999999993e-01  1.4999999999999997e-01
5.0000000000000003e-02  3.6666666665000003e-01  1.4999999999999999e-01
5.0000000000000003e-02  4.3333333334999991e-01  1.4999999999999999e-01
5.0000000000000003e-02  5.0000000000000000e-01  1.4999999999999997e-01
5.0000000000000003e-02  5.6666666664999987e-01  1.4999999999999999e-01
5.0000000000000003e-02  6.3333333334999997e-01  1.4999999999999999e-01
5.0000000000000003e-02  6.9999999999999984e-01  1.4999999999999997e-01
5.0000000000000003e-02  7.6666666664999994e-01  1.4999999999999999e-01
5.0000000000000003e-02  8.3333333334999993e-01  1.4999999999999999e-01
5.0000000000000010e-02  8.9999999999999991e-01  1.4999999999999999e-01
5.0000000000000003e-02  9.6666666664999990e-01  1.4999999999999999e-01

CELLS 0 0


CELL_TYPES 0


POINT_DATA 33

VECTORS VertexNormals float

0.0000000000000000e+00 0.0000000000000000e+00 0.0000000000000000e+00 
0.0000000000000000e+00 0.0000000000000000e+00 0.0000000000000000e+00 
0.0000000000000000e+00 0.0000000000000000e+00 0.0000000000000000e+00 
0.0000000000000000e+00 0.0000000000000000e+00 0.0000000000000000e+00 
0.0000000000000000e+00 0.0000000000000000e+00 0.0000000000000000e+00 
0.0000000000000000e+00 0.0000000000000000e+00 0.0000000000000000e+00 
0.0000000000000000e+00 0.0000000000000000e+00 0.0000000000000000e+00 
0.0000000000000000e+00 0.0000000000000000e+00 0.0000000000000000e+00 
0.0000000000000000e+00 0.0000000000000000e+00 0.0000000000000000e+00 
0.0000000000000000e+00 0.0000000000000000e+00 0.0000000000000000e+00 
0.0000000000000000e+00 0.0000000000000000e+00 0.0000000000000000e+00 
0.0000000000000000e+00 0.0000000000000000e+00 0.0000000000000000e+00 
0.0000000000000000e+00 0.0000000000000000e+00 0.0000000000000000e+00 
0.0000000000000000e+00 0.0000000000000000e+00 0.0000000000000000e+00 
0.0000000000000000e+00 0.0000000000000000e+00 0.0000000000000000e+00 
0.0000000000000000e+00 0.0000000000000000e+00 0.0000000000000000e+00 
0.0000000000000000e+00 0.0000000000000000e+00 0.0000000000000000e+00 
0.0000000000000000e+00 0.0000000000000000e+00 0.0000000000000000e+00 
0.0000000000000000e+00 0.0000000000000000e+00 0.0000000000000000e+00 
0.0000000000000000e+00 0.0000000000000000e+00 0.0000000000000000e+00 
0.0000000000000000e+00 0.0000000000000000e+00 0.0000000000000000e+00 
0.0000000000000000e+00 0.0000000000000000e+00 0.0000000000000000e+00 
0.0000000000000000e+00 0.0000000000000000e+00 0.0000000000000000e+00 
0.0000000000000000e+00 0.0000000000000000e+00 0.0000000000000000e+00 
0.0000000000000000e+00 0.0000000000000000e+00 0.0000000000000000e+00 
0.0000000000000000e+00 0.0000000000000000e+00 0.0000000000000000e+00 
0.0000000000000000e+00 0.0000000000000000e+00 0.0000000000000000e+00 
0.0000000000000000e+00 0.0000000000000000e+00 0.0000000000000000e+00 
0.0000000000000000e+00 0.0000000000000000e+00 0.0000000000000000e+00 
0.0000000000000000e+00 0.0000000000000000e+00 0.0000000000000000e+00 
0.0000000000000000e+00 0.0000000000000000e+00 0.0000000000000000e+00 
0.0000000000000000e+00 0.0000000000000000e+00 0.0000000000000000e+00 
0.0000000000000000e+00 0.0000000000000000e+00 0.0000000000000000e+00 

VECTORS Stress float
1.4256035407449355e+02 -4.5380529727071375e+00 -7.8519312621918596e-13 
1.4252378742410536e+02 -1.0458142686409607e+01 -1.9389154011649233e-12 
1.4206745177536598e+02 -1.6885452997055744e+01 -8.9674312915423246e-13 
1.4082875738887287e+02 -2.1780933761285429e+01 1.6207561300116842e-12 
1.3856164734729427e+02 -2.5611347371478765e+01 1.3615126966792219e-12 
1.3500482992326639e+02 -2.9120146107148173e+01 1.5826869178244446e-13 
1.3054176381890073e+02 -3.1104979487162382e+01 3.0931781788561210e-13 
1.2492485033332980e+02 -3.2862133002575781e+01 2.2271800570273215e-13 
1.1838309243650227e+02 -3.4209206208603135e+01 -8.3305934838000768e-13 
1.1212439102539780e+02 -3.3147663506126769e+01 -8.9704853450155900e-13 
1.0553387923012821e+02 -3.0989686707542344e+01 9.3896473478733346e-13 
9.7624275564702813e+01 -2.8070789187795299e+01 2.0815579860177492e-12 
8.7163171891931626e+01 -2.4616227719179115e+01 2.2428188237840361e-12 
7.2761245829305864e+01 -2.0330851163719103e+01 2.4369105289184849e-12 
5.0912856572034784e+01 -1.4100004906156427e+01 1.2713138600054193e-12 
1.9002327976008093e+01 6.6131044036876958e+01 8.7148303365958223e-17 
1.3109640539198685e+01 4.6065389293720727e+01 1.1897538539385748e-19 
8.2829120645380296e+00 2.9699605155212929e+01 -7.9905812955820708e-17 
-1.0870491426512041e+01 3.9466166974196631e-01 8.8740153450428879e-13 
-1.1026356028236068e+01 8.7453930489499854e-01 1.4849809800897095e-12 
-1.0887702270557998e+01 1.4185395414927828e+00 4.1269563707287461e-13 
-1.0299293271732237e+01 1.7277164969093284e+00 -1.2221308776934508e-12 
-9.1604406449273466e+00 1.8534962601263334e+00 -1.0403721811470182e-12 
-7.5353360549251081e+00 1.8022599026157935e+00 -9.2935306438112324e-13 
-5.4318779643621662e+00 1.4553205605674226e+00 -1.0909117563427477e-12 
-3.0368694294115230e+00 9.8016001526268060e-01 -1.0614352758002345e-12 
-1.7380583316540432e-01 2.1216104481082332e-01 -2.7841625880351125e-13 
3.2313916884270579e+00 -7.8976142059396059e-01 6.3545992217573342e-13 
6.9491465921130562e+00 -1.8366161255412299e+00 -1.6501746074976867e-12 
1.0170979897611865e+01 -2.7300019856294564e+00 -3.2081655475948386e-12 
1.2648820855056170e+01 -3.3982143494896624e+00 -2.2923629799859768e-12 
1.4400460164931467e+01 -3.8443818913220547e+00 1.0109860356932217e-12 
1.5428291850158754e+01 -4.1485955290762471e+00 1.8981604686265874e-12 

