# vtk DataFile Version 2.0

ASCII

DATASET UNSTRUCTURED_GRID

POINTS 33 float 

-5.0000000000000003e-02  3.3333333335000000e-02  1.4999999999999997e-01
-5.0000000000000003e-02  9.9999999985000018e-02  1.4999999999999999e-01
-5.0000000000000003e-02  1.6666666665000002e-01  1.4999999999999999e-01
-5.0000000000000003e-02  2.3333333334999998e-01  1.4999999999999999e-01
-5.0000000000000003e-02  2.9999999999999993e-01  1.4999999999999997e-01
-5.0000000000000003e-02  3.6666666665000003e-01  1.4999999999999999e-01
-5.0000000000000003e-02  4.3333333335000002e-01  1.4999999999999999e-01
-5.0000000000000003e-02  5.0000000000000000e-01  1.4999999999999997e-01
-5.0000000000000003e-02  5.6666666664999987e-01  1.4999999999999999e-01
-5.0000000000000003e-02  6.3333333334999986e-01  1.4999999999999999e-01
-5.0000000000000003e-02  6.9999999999999984e-01  1.4999999999999997e-01
-5.0000000000000003e-02  7.6666666664999994e-01  1.4999999999999999e-01
-4.9999999999999996e-02  8.3333333334999982e-01  1.4999999999999999e-01
-5.0000000000000003e-02  8.9999999999999991e-01  1.4999999999999997e-01
-5.0000000000000003e-02  9.6666666664999990e-01  1.4999999999999999e-01
-3.3333333335000000e-02  9.9999999999999978e-01  1.4999999999999997e-01
0.0000000000000000e+00  1.0000000000000000e+00  1.4999999999999997e-01
3.3333333335000007e-02  1.0000000000000000e+00  1.4999999999999999e-01
5.0000000000000003e-02  3.3333333335000000e-02  1.4999999999999999e-01
5.0000000000000003e-02  9.9999999985000004e-02  1.4999999999999999e-01
5.0000000000000003e-02  1.6666666664999999e-01  1.4999999999999999e-01
5.0000000000000003e-02  2.3333333334999998e-01  1.4999999999999999e-01
5.0000000000000003e-02  2.9999999999999993e-01  1.4999999999999997e-01
5.0000000000000003e-02  3.6666666665000003e-01  1.4999999999999999e-01
5.0000000000000003e-02  4.3333333334999991e-01  1.4999999999999999e-01
5.0000000000000003e-02  5.0000000000000000e-01  1.4999999999999997e-01
5.0000000000000003e-02  5.6666666664999987e-01  1.4999999999999999e-01
5.0000000000000003e-02  6.3333333334999997e-01  1.4999999999999999e-01
5.0000000000000003e-02  6.9999999999999984e-01  1.4999999999999997e-01
5.0000000000000003e-02  7.6666666664999994e-01  1.4999999999999999e-01
5.0000000000000003e-02  8.3333333334999993e-01  1.4999999999999999e-01
5.0000000000000010e-02  8.9999999999999991e-01  1.4999999999999999e-01
5.0000000000000003e-02  9.6666666664999990e-01  1.4999999999999999e-01

CELLS 0 0


CELL_TYPES 0


POINT_DATA 33

VECTORS VertexNormals float

0.0000000000000000e+00 0.0000000000000000e+00 0.0000000000000000e+00 
0.0000000000000000e+00 0.0000000000000000e+00 0.0000000000000000e+00 
0.0000000000000000e+00 0.0000000000000000e+00 0.0000000000000000e+00 
0.0000000000000000e+00 0.0000000000000000e+00 0.0000000000000000e+00 
0.0000000000000000e+00 0.0000000000000000e+00 0.0000000000000000e+00 
0.0000000000000000e+00 0.0000000000000000e+00 0.0000000000000000e+00 
0.0000000000000000e+00 0.0000000000000000e+00 0.0000000000000000e+00 
0.0000000000000000e+00 0.0000000000000000e+00 0.0000000000000000e+00 
0.0000000000000000e+00 0.0000000000000000e+00 0.0000000000000000e+00 
0.0000000000000000e+00 0.0000000000000000e+00 0.0000000000000000e+00 
0.0000000000000000e+00 0.0000000000000000e+00 0.0000000000000000e+00 
0.0000000000000000e+00 0.0000000000000000e+00 0.0000000000000000e+00 
0.0000000000000000e+00 0.0000000000000000e+00 0.0000000000000000e+00 
0.0000000000000000e+00 0.0000000000000000e+00 0.0000000000000000e+00 
0.0000000000000000e+00 0.0000000000000000e+00 0.0000000000000000e+00 
0.0000000000000000e+00 0.0000000000000000e+00 0.0000000000000000e+00 
0.0000000000000000e+00 0.0000000000000000e+00 0.0000000000000000e+00 
0.0000000000000000e+00 0.0000000000000000e+00 0.0000000000000000e+00 
0.0000000000000000e+00 0.0000000000000000e+00 0.0000000000000000e+00 
0.0000000000000000e+00 0.0000000000000000e+00 0.0000000000000000e+00 
0.0000000000000000e+00 0.0000000000000000e+00 0.0000000000000000e+00 
0.0000000000000000e+00 0.0000000000000000e+00 0.0000000000000000e+00 
0.0000000000000000e+00 0.0000000000000000e+00 0.0000000000000000e+00 
0.0000000000000000e+00 0.0000000000000000e+00 0.0000000000000000e+00 
0.0000000000000000e+00 0.0000000000000000e+00 0.0000000000000000e+00 
0.0000000000000000e+00 0.0000000000000000e+00 0.0000000000000000e+00 
0.0000000000000000e+00 0.0000000000000000e+00 0.0000000000000000e+00 
0.0000000000000000e+00 0.0000000000000000e+00 0.0000000000000000e+00 
0.0000000000000000e+00 0.0000000000000000e+00 0.0000000000000000e+00 
0.0000000000000000e+00 0.0000000000000000e+00 0.0000000000000000e+00 
0.0000000000000000e+00 0.0000000000000000e+00 0.0000000000000000e+00 
0.0000000000000000e+00 0.0000000000000000e+00 0.0000000000000000e+00 
0.0000000000000000e+00 0.0000000000000000e+00 0.0000000000000000e+00 

VECTORS Stress float
1.3393512418365583e+02 -4.8006399766668002e+00 -1.2070962393313888e-12 
1.3396015489249993e+02 -9.7786166255304625e+00 -1.3444654977384723e-12 
1.3353734722702333e+02 -1.5777822244386769e+01 -9.8084735970060300e-13 
1.3243226494170918e+02 -2.0104924220395731e+01 -9.2445672817907078e-13 
1.3032126244296478e+02 -2.3677222449588722e+01 -9.0006369803869132e-14 
1.2712546491627768e+02 -2.6549523232648458e+01 1.3199142403350018e-12 
1.2328881411075294e+02 -2.7653982597849229e+01 8.1459875950370946e-13 
1.1870099604134161e+02 -2.7984890739193066e+01 -3.8864929570413701e-13 
1.1336368080222100e+02 -2.7500323260721625e+01 1.4101070988260365e-14 
1.0708531823147179e+02 -2.6595825473700252e+01 -9.3954095173583965e-14 
1.0012512564635746e+02 -2.4684267993149412e+01 -8.2322052928036967e-13 
9.1928857205108386e+01 -2.2494914812156999e+01 -9.7666276158576931e-13 
8.1823969676966783e+01 -1.9710072678000738e+01 9.3683830229811908e-14 
6.8562366264879060e+01 -1.5277972735864559e+01 2.7464884719657266e-13 
4.5959803350541065e+01 -9.7660695998792679e+00 2.8125496637876733e-14 
1.7938564986787583e+01 8.0423870886368917e+01 1.9311766486463028e-16 
1.3355652230390195e+01 6.0201248835486197e+01 8.1073517088029520e-17 
9.2439467758703504e+00 4.2544952442023096e+01 -2.8892821862495726e-17 
4.7597690401931025e+00 -1.7622664277256087e-01 4.0433746511486183e-13 
4.5699686025427821e+00 -3.4949278543987256e-01 8.2066801880529907e-13 
4.6582190530699066e+00 -5.4856209587802718e-01 1.0444005896186473e-12 
5.2120418889035180e+00 -7.7872816374705967e-01 3.4409947469905688e-13 
6.3430014456796702e+00 -1.1244940802202419e+00 -2.8938545793432991e-13 
8.0091626804853355e+00 -1.6312443574262805e+00 5.6027817786290630e-14 
1.0241675033302409e+01 -2.2505686066623030e+00 4.9020635553852290e-13 
1.2955818260841196e+01 -2.9556672721163415e+00 1.2522945059814122e-12 
1.5841300249046926e+01 -3.7686329853665010e+00 7.8706957330489382e-13 
1.8837114883566020e+01 -4.5260854086282789e+00 -3.3577231980515174e-14 
2.1849497720858185e+01 -5.2522192117136317e+00 6.5812339526356812e-13 
2.4804217619880834e+01 -5.9051200774190713e+00 1.7891511592016536e-13 
2.7351337951955163e+01 -6.3277693268485962e+00 -8.1855936877761880e-13 
2.9056455124794830e+01 -6.3491094004417512e+00 -2.2724188482274354e-12 
2.9468668500849656e+01 -6.1986440004417398e+00 -2.0504583672158003e-12 

