# vtk DataFile Version 2.0

ASCII

DATASET UNSTRUCTURED_GRID

POINTS 33 float 

-5.0000000000000003e-02  3.3333333335000000e-02  1.4999999999999997e-01
-5.0000000000000003e-02  9.9999999985000018e-02  1.4999999999999999e-01
-5.0000000000000003e-02  1.6666666665000002e-01  1.4999999999999999e-01
-5.0000000000000003e-02  2.3333333334999998e-01  1.4999999999999999e-01
-5.0000000000000003e-02  2.9999999999999993e-01  1.4999999999999997e-01
-5.0000000000000003e-02  3.6666666665000003e-01  1.4999999999999999e-01
-5.0000000000000003e-02  4.3333333335000002e-01  1.4999999999999999e-01
-5.0000000000000003e-02  5.0000000000000000e-01  1.4999999999999997e-01
-5.0000000000000003e-02  5.6666666664999987e-01  1.4999999999999999e-01
-5.0000000000000003e-02  6.3333333334999986e-01  1.4999999999999999e-01
-5.0000000000000003e-02  6.9999999999999984e-01  1.4999999999999997e-01
-5.0000000000000003e-02  7.6666666664999994e-01  1.4999999999999999e-01
-4.9999999999999996e-02  8.3333333334999982e-01  1.4999999999999999e-01
-5.0000000000000003e-02  8.9999999999999991e-01  1.4999999999999997e-01
-5.0000000000000003e-02  9.6666666664999990e-01  1.4999999999999999e-01
-3.3333333335000000e-02  9.9999999999999978e-01  1.4999999999999997e-01
0.0000000000000000e+00  1.0000000000000000e+00  1.4999999999999997e-01
3.3333333335000007e-02  1.0000000000000000e+00  1.4999999999999999e-01
5.0000000000000003e-02  3.3333333335000000e-02  1.4999999999999999e-01
5.0000000000000003e-02  9.9999999985000004e-02  1.4999999999999999e-01
5.0000000000000003e-02  1.6666666664999999e-01  1.4999999999999999e-01
5.0000000000000003e-02  2.3333333334999998e-01  1.4999999999999999e-01
5.0000000000000003e-02  2.9999999999999993e-01  1.4999999999999997e-01
5.0000000000000003e-02  3.6666666665000003e-01  1.4999999999999999e-01
5.0000000000000003e-02  4.3333333334999991e-01  1.4999999999999999e-01
5.0000000000000003e-02  5.0000000000000000e-01  1.4999999999999997e-01
5.0000000000000003e-02  5.6666666664999987e-01  1.4999999999999999e-01
5.0000000000000003e-02  6.3333333334999997e-01  1.4999999999999999e-01
5.0000000000000003e-02  6.9999999999999984e-01  1.4999999999999997e-01
5.0000000000000003e-02  7.6666666664999994e-01  1.4999999999999999e-01
5.0000000000000003e-02  8.3333333334999993e-01  1.4999999999999999e-01
5.0000000000000010e-02  8.9999999999999991e-01  1.4999999999999999e-01
5.0000000000000003e-02  9.6666666664999990e-01  1.4999999999999999e-01

CELLS 0 0


CELL_TYPES 0


POINT_DATA 33

VECTORS VertexNormals float

0.0000000000000000e+00 0.0000000000000000e+00 0.0000000000000000e+00 
0.0000000000000000e+00 0.0000000000000000e+00 0.0000000000000000e+00 
0.0000000000000000e+00 0.0000000000000000e+00 0.0000000000000000e+00 
0.0000000000000000e+00 0.0000000000000000e+00 0.0000000000000000e+00 
0.0000000000000000e+00 0.0000000000000000e+00 0.0000000000000000e+00 
0.0000000000000000e+00 0.0000000000000000e+00 0.0000000000000000e+00 
0.0000000000000000e+00 0.0000000000000000e+00 0.0000000000000000e+00 
0.0000000000000000e+00 0.0000000000000000e+00 0.0000000000000000e+00 
0.0000000000000000e+00 0.0000000000000000e+00 0.0000000000000000e+00 
0.0000000000000000e+00 0.0000000000000000e+00 0.0000000000000000e+00 
0.0000000000000000e+00 0.0000000000000000e+00 0.0000000000000000e+00 
0.0000000000000000e+00 0.0000000000000000e+00 0.0000000000000000e+00 
0.0000000000000000e+00 0.0000000000000000e+00 0.0000000000000000e+00 
0.0000000000000000e+00 0.0000000000000000e+00 0.0000000000000000e+00 
0.0000000000000000e+00 0.0000000000000000e+00 0.0000000000000000e+00 
0.0000000000000000e+00 0.0000000000000000e+00 0.0000000000000000e+00 
0.0000000000000000e+00 0.0000000000000000e+00 0.0000000000000000e+00 
0.0000000000000000e+00 0.0000000000000000e+00 0.0000000000000000e+00 
0.0000000000000000e+00 0.0000000000000000e+00 0.0000000000000000e+00 
0.0000000000000000e+00 0.0000000000000000e+00 0.0000000000000000e+00 
0.0000000000000000e+00 0.0000000000000000e+00 0.0000000000000000e+00 
0.0000000000000000e+00 0.0000000000000000e+00 0.0000000000000000e+00 
0.0000000000000000e+00 0.0000000000000000e+00 0.0000000000000000e+00 
0.0000000000000000e+00 0.0000000000000000e+00 0.0000000000000000e+00 
0.0000000000000000e+00 0.0000000000000000e+00 0.0000000000000000e+00 
0.0000000000000000e+00 0.0000000000000000e+00 0.0000000000000000e+00 
0.0000000000000000e+00 0.0000000000000000e+00 0.0000000000000000e+00 
0.0000000000000000e+00 0.0000000000000000e+00 0.0000000000000000e+00 
0.0000000000000000e+00 0.0000000000000000e+00 0.0000000000000000e+00 
0.0000000000000000e+00 0.0000000000000000e+00 0.0000000000000000e+00 
0.0000000000000000e+00 0.0000000000000000e+00 0.0000000000000000e+00 
0.0000000000000000e+00 0.0000000000000000e+00 0.0000000000000000e+00 
0.0000000000000000e+00 0.0000000000000000e+00 0.0000000000000000e+00 

VECTORS Stress float
2.1676554347135664e+02 -1.0803853489211058e+01 3.2300992564248521e-12 
2.1564482447828581e+02 -2.6176423446403486e+01 4.5365688313688105e-12 
2.1296774815631966e+02 -4.1226713560466330e+01 2.1185990785979293e-12 
2.0831161572432956e+02 -5.3826595920373755e+01 -1.0887151889409257e-12 
2.0157427582046614e+02 -6.5110143979081670e+01 -1.8843478617489464e-12 
1.9399022084294765e+02 -7.3174238312837460e+01 -7.4229463770674967e-12 
1.8585808529598702e+02 -7.9230364408337365e+01 -9.0923044016663166e-12 
1.7843388908362581e+02 -8.2049220294172613e+01 1.1194030846364369e-12 
1.7056028053429182e+02 -8.4205769225215491e+01 6.0175983276551807e-12 
1.6271984520847960e+02 -8.4945529303562864e+01 3.2084265545367540e-12 
1.5546378398921405e+02 -8.3980471824527442e+01 5.5231014902792897e-13 
1.4902521766270590e+02 -8.0970568358095250e+01 -5.8423677574022577e-13 
1.4182051436486091e+02 -7.6830079640266703e+01 6.6736478812552435e-14 
1.3285212574968875e+02 -7.0573414226873751e+01 3.6631876741310978e-12 
1.1837183515867605e+02 -6.2472531239597522e+01 2.3142231899220717e-12 
-1.3081255909966615e+01 -2.4852985927314982e+01 1.7269955660421889e-19 
-2.4855981000658648e+01 -4.6509194642765429e+01 -1.3691379730710867e-19 
-3.2878400242324716e+01 -6.1597438446605850e+01 3.6991684186018860e-20 
-9.4845206004987460e+01 5.5007816942358740e+00 -3.1721965508737917e-12 
-9.4244858458923630e+01 1.2746016145109948e+01 -3.9509354557221951e-12 
-9.3242285197500408e+01 2.0139515247607179e+01 -8.7984006742891295e-13 
-9.2220879586256771e+01 2.6354293798547317e+01 1.5611147035450038e-12 
-9.0939856857564038e+01 3.2085038602424376e+01 1.6943783543028069e-12 
-8.9704223241119664e+01 3.6752583307957750e+01 6.8635307130600343e-12 
-8.8655819764652037e+01 4.0164292286587298e+01 8.7760980993652316e-12 
-8.7615108984711043e+01 4.2718805494062813e+01 -1.4203818809450399e-13 
-8.6474133471587450e+01 4.4590241164859769e+01 -4.7887229128092293e-12 
-8.5019278793544729e+01 4.6157889764492033e+01 -2.8007945929968963e-12 
-8.3739247750323315e+01 4.5957606807497541e+01 -1.1526028716005520e-12 
-8.2118474261715136e+01 4.4938275478210002e+01 -9.5478337650874798e-13 
-8.0247398308800385e+01 4.3513707942423125e+01 1.1664935097399900e-13 
-7.8399251149635973e+01 4.1718377982496435e+01 -3.7287923395872745e-13 
-7.6361174012613915e+01 4.0747827549288019e+01 -3.1924056511303148e-13 

