# vtk DataFile Version 2.0

ASCII

DATASET UNSTRUCTURED_GRID

POINTS 33 float 

-5.0000000000000003e-02  3.3333333335000000e-02  1.4999999999999997e-01
-5.0000000000000003e-02  9.9999999985000018e-02  1.4999999999999999e-01
-5.0000000000000003e-02  1.6666666665000002e-01  1.4999999999999999e-01
-5.0000000000000003e-02  2.3333333334999998e-01  1.4999999999999999e-01
-5.0000000000000003e-02  2.9999999999999993e-01  1.4999999999999997e-01
-5.0000000000000003e-02  3.6666666665000003e-01  1.4999999999999999e-01
-5.0000000000000003e-02  4.3333333335000002e-01  1.4999999999999999e-01
-5.0000000000000003e-02  5.0000000000000000e-01  1.4999999999999997e-01
-5.0000000000000003e-02  5.6666666664999987e-01  1.4999999999999999e-01
-5.0000000000000003e-02  6.3333333334999986e-01  1.4999999999999999e-01
-5.0000000000000003e-02  6.9999999999999984e-01  1.4999999999999997e-01
-5.0000000000000003e-02  7.6666666664999994e-01  1.4999999999999999e-01
-4.9999999999999996e-02  8.3333333334999982e-01  1.4999999999999999e-01
-5.0000000000000003e-02  8.9999999999999991e-01  1.4999999999999997e-01
-5.0000000000000003e-02  9.6666666664999990e-01  1.4999999999999999e-01
-3.3333333335000000e-02  9.9999999999999978e-01  1.4999999999999997e-01
0.0000000000000000e+00  1.0000000000000000e+00  1.4999999999999997e-01
3.3333333335000007e-02  1.0000000000000000e+00  1.4999999999999999e-01
5.0000000000000003e-02  3.3333333335000000e-02  1.4999999999999999e-01
5.0000000000000003e-02  9.9999999985000004e-02  1.4999999999999999e-01
5.0000000000000003e-02  1.6666666664999999e-01  1.4999999999999999e-01
5.0000000000000003e-02  2.3333333334999998e-01  1.4999999999999999e-01
5.0000000000000003e-02  2.9999999999999993e-01  1.4999999999999997e-01
5.0000000000000003e-02  3.6666666665000003e-01  1.4999999999999999e-01
5.0000000000000003e-02  4.3333333334999991e-01  1.4999999999999999e-01
5.0000000000000003e-02  5.0000000000000000e-01  1.4999999999999997e-01
5.0000000000000003e-02  5.6666666664999987e-01  1.4999999999999999e-01
5.0000000000000003e-02  6.3333333334999997e-01  1.4999999999999999e-01
5.0000000000000003e-02  6.9999999999999984e-01  1.4999999999999997e-01
5.0000000000000003e-02  7.6666666664999994e-01  1.4999999999999999e-01
5.0000000000000003e-02  8.3333333334999993e-01  1.4999999999999999e-01
5.0000000000000010e-02  8.9999999999999991e-01  1.4999999999999999e-01
5.0000000000000003e-02  9.6666666664999990e-01  1.4999999999999999e-01

CELLS 0 0


CELL_TYPES 0


POINT_DATA 33

VECTORS VertexNormals float

0.0000000000000000e+00 0.0000000000000000e+00 0.0000000000000000e+00 
0.0000000000000000e+00 0.0000000000000000e+00 0.0000000000000000e+00 
0.0000000000000000e+00 0.0000000000000000e+00 0.0000000000000000e+00 
0.0000000000000000e+00 0.0000000000000000e+00 0.0000000000000000e+00 
0.0000000000000000e+00 0.0000000000000000e+00 0.0000000000000000e+00 
0.0000000000000000e+00 0.0000000000000000e+00 0.0000000000000000e+00 
0.0000000000000000e+00 0.0000000000000000e+00 0.0000000000000000e+00 
0.0000000000000000e+00 0.0000000000000000e+00 0.0000000000000000e+00 
0.0000000000000000e+00 0.0000000000000000e+00 0.0000000000000000e+00 
0.0000000000000000e+00 0.0000000000000000e+00 0.0000000000000000e+00 
0.0000000000000000e+00 0.0000000000000000e+00 0.0000000000000000e+00 
0.0000000000000000e+00 0.0000000000000000e+00 0.0000000000000000e+00 
0.0000000000000000e+00 0.0000000000000000e+00 0.0000000000000000e+00 
0.0000000000000000e+00 0.0000000000000000e+00 0.0000000000000000e+00 
0.0000000000000000e+00 0.0000000000000000e+00 0.0000000000000000e+00 
0.0000000000000000e+00 0.0000000000000000e+00 0.0000000000000000e+00 
0.0000000000000000e+00 0.0000000000000000e+00 0.0000000000000000e+00 
0.0000000000000000e+00 0.0000000000000000e+00 0.0000000000000000e+00 
0.0000000000000000e+00 0.0000000000000000e+00 0.0000000000000000e+00 
0.0000000000000000e+00 0.0000000000000000e+00 0.0000000000000000e+00 
0.0000000000000000e+00 0.0000000000000000e+00 0.0000000000000000e+00 
0.0000000000000000e+00 0.0000000000000000e+00 0.0000000000000000e+00 
0.0000000000000000e+00 0.0000000000000000e+00 0.0000000000000000e+00 
0.0000000000000000e+00 0.0000000000000000e+00 0.0000000000000000e+00 
0.0000000000000000e+00 0.0000000000000000e+00 0.0000000000000000e+00 
0.0000000000000000e+00 0.0000000000000000e+00 0.0000000000000000e+00 
0.0000000000000000e+00 0.0000000000000000e+00 0.0000000000000000e+00 
0.0000000000000000e+00 0.0000000000000000e+00 0.0000000000000000e+00 
0.0000000000000000e+00 0.0000000000000000e+00 0.0000000000000000e+00 
0.0000000000000000e+00 0.0000000000000000e+00 0.0000000000000000e+00 
0.0000000000000000e+00 0.0000000000000000e+00 0.0000000000000000e+00 
0.0000000000000000e+00 0.0000000000000000e+00 0.0000000000000000e+00 
0.0000000000000000e+00 0.0000000000000000e+00 0.0000000000000000e+00 

VECTORS Stress float
1.1575166760708200e+02 -2.3244426568618701e+00 5.5490361357157003e-13 
1.1567433690874644e+02 -3.6382366586297521e+00 5.4486012642078563e-13 
1.1518476523255694e+02 -4.3555824128263287e+00 -2.5276328309828436e-14 
1.1431994370330293e+02 -4.1529763110025515e+00 -2.0508626068596025e-13 
1.1315153093470848e+02 -3.0331482172100888e+00 -1.8595239494389175e-13 
1.1152682232880602e+02 -2.4278836297828295e+00 -2.6541371726838705e-13 
1.0959546350790303e+02 -3.7959309492003407e-01 -4.5540228785168501e-13 
1.0722100121595339e+02 1.1782482255210978e+00 -3.3926736634567093e-13 
1.0398583245057611e+02 1.1735061655322383e+00 -4.5609710166682426e-13 
9.9515707466987607e+01 6.9627660543662606e-01 -3.0763989298421521e-13 
9.3502685813177578e+01 4.9905679667598113e-01 1.1694853037244556e-13 
8.5271592960977884e+01 5.6056280881808684e-01 2.6882882096950209e-13 
7.3209443679838927e+01 6.2918358804074748e-01 1.2271346881707042e-13 
5.3544499232123016e+01 6.7356884130640127e-01 4.9165399746067459e-13 
1.5053862443540476e+01 5.0235475584885214e-01 5.2108798676149917e-13 
-1.3042994452214389e+00 2.2650545093943606e+02 2.9083847535845926e-20 
-9.5951243746472403e-01 2.0301903525340859e+02 8.4534247854336550e-17 
-6.0292656412115397e-01 1.6056477557098754e+02 -3.6146451287785341e-37 
1.0247531535904108e+02 -1.7617064414135559e+00 -4.6309428652435112e-13 
1.0280545439001317e+02 -3.3543063242072035e+00 -4.9156783143406864e-13 
1.0365156983478700e+02 -3.8843935632097417e+00 8.1405014560628771e-14 
1.0511668831324879e+02 -3.8081094397500022e+00 4.7934446668445863e-13 
1.0736756893498553e+02 -2.8903014847236417e+00 3.7267975381766238e-13 
1.1045332367193379e+02 -2.3928184232971077e+00 2.4100008015077226e-13 
1.1480462975866864e+02 -3.9929275246067986e-01 3.8618082363167903e-13 
1.2056201432870991e+02 1.3228813610744383e+00 3.0137162595293866e-13 
1.2741661026074635e+02 1.4701754192792265e+00 4.8104655620174462e-13 
1.3492985872407817e+02 9.4184572445917658e-01 3.2422997205330852e-13 
1.4244210852597536e+02 6.3540908354105108e-01 2.0021698419456417e-13 
1.4858206362406705e+02 7.7131319765087802e-01 9.2418549013786223e-14 
1.5125382904364074e+02 9.8852119687121054e-01 -1.2832062721483300e-13 
1.4861396313599988e+02 1.0933363614422840e+00 4.4820479579997211e-13 
1.3944509822957789e+02 9.6747705062258516e-01 4.6848109804777213e-13 

