# vtk DataFile Version 2.0

ASCII

DATASET UNSTRUCTURED_GRID

POINTS 33 float 

-5.0000000000000003e-02  3.3333333335000000e-02  1.4999999999999997e-01
-5.0000000000000003e-02  9.9999999985000018e-02  1.4999999999999999e-01
-5.0000000000000003e-02  1.6666666665000002e-01  1.4999999999999999e-01
-5.0000000000000003e-02  2.3333333334999998e-01  1.4999999999999999e-01
-5.0000000000000003e-02  2.9999999999999993e-01  1.4999999999999997e-01
-5.0000000000000003e-02  3.6666666665000003e-01  1.4999999999999999e-01
-5.0000000000000003e-02  4.3333333335000002e-01  1.4999999999999999e-01
-5.0000000000000003e-02  5.0000000000000000e-01  1.4999999999999997e-01
-5.0000000000000003e-02  5.6666666664999987e-01  1.4999999999999999e-01
-5.0000000000000003e-02  6.3333333334999986e-01  1.4999999999999999e-01
-5.0000000000000003e-02  6.9999999999999984e-01  1.4999999999999997e-01
-5.0000000000000003e-02  7.6666666664999994e-01  1.4999999999999999e-01
-4.9999999999999996e-02  8.3333333334999982e-01  1.4999999999999999e-01
-5.0000000000000003e-02  8.9999999999999991e-01  1.4999999999999997e-01
-5.0000000000000003e-02  9.6666666664999990e-01  1.4999999999999999e-01
-3.3333333335000000e-02  9.9999999999999978e-01  1.4999999999999997e-01
0.0000000000000000e+00  1.0000000000000000e+00  1.4999999999999997e-01
3.3333333335000007e-02  1.0000000000000000e+00  1.4999999999999999e-01
5.0000000000000003e-02  3.3333333335000000e-02  1.4999999999999999e-01
5.0000000000000003e-02  9.9999999985000004e-02  1.4999999999999999e-01
5.0000000000000003e-02  1.6666666664999999e-01  1.4999999999999999e-01
5.0000000000000003e-02  2.3333333334999998e-01  1.4999999999999999e-01
5.0000000000000003e-02  2.9999999999999993e-01  1.4999999999999997e-01
5.0000000000000003e-02  3.6666666665000003e-01  1.4999999999999999e-01
5.0000000000000003e-02  4.3333333334999991e-01  1.4999999999999999e-01
5.0000000000000003e-02  5.0000000000000000e-01  1.4999999999999997e-01
5.0000000000000003e-02  5.6666666664999987e-01  1.4999999999999999e-01
5.0000000000000003e-02  6.3333333334999997e-01  1.4999999999999999e-01
5.0000000000000003e-02  6.9999999999999984e-01  1.4999999999999997e-01
5.0000000000000003e-02  7.6666666664999994e-01  1.4999999999999999e-01
5.0000000000000003e-02  8.3333333334999993e-01  1.4999999999999999e-01
5.0000000000000010e-02  8.9999999999999991e-01  1.4999999999999999e-01
5.0000000000000003e-02  9.6666666664999990e-01  1.4999999999999999e-01

CELLS 0 0


CELL_TYPES 0


POINT_DATA 33

VECTORS VertexNormals float

0.0000000000000000e+00 0.0000000000000000e+00 0.0000000000000000e+00 
0.0000000000000000e+00 0.0000000000000000e+00 0.0000000000000000e+00 
0.0000000000000000e+00 0.0000000000000000e+00 0.0000000000000000e+00 
0.0000000000000000e+00 0.0000000000000000e+00 0.0000000000000000e+00 
0.0000000000000000e+00 0.0000000000000000e+00 0.0000000000000000e+00 
0.0000000000000000e+00 0.0000000000000000e+00 0.0000000000000000e+00 
0.0000000000000000e+00 0.0000000000000000e+00 0.0000000000000000e+00 
0.0000000000000000e+00 0.0000000000000000e+00 0.0000000000000000e+00 
0.0000000000000000e+00 0.0000000000000000e+00 0.0000000000000000e+00 
0.0000000000000000e+00 0.0000000000000000e+00 0.0000000000000000e+00 
0.0000000000000000e+00 0.0000000000000000e+00 0.0000000000000000e+00 
0.0000000000000000e+00 0.0000000000000000e+00 0.0000000000000000e+00 
0.0000000000000000e+00 0.0000000000000000e+00 0.0000000000000000e+00 
0.0000000000000000e+00 0.0000000000000000e+00 0.0000000000000000e+00 
0.0000000000000000e+00 0.0000000000000000e+00 0.0000000000000000e+00 
0.0000000000000000e+00 0.0000000000000000e+00 0.0000000000000000e+00 
0.0000000000000000e+00 0.0000000000000000e+00 0.0000000000000000e+00 
0.0000000000000000e+00 0.0000000000000000e+00 0.0000000000000000e+00 
0.0000000000000000e+00 0.0000000000000000e+00 0.0000000000000000e+00 
0.0000000000000000e+00 0.0000000000000000e+00 0.0000000000000000e+00 
0.0000000000000000e+00 0.0000000000000000e+00 0.0000000000000000e+00 
0.0000000000000000e+00 0.0000000000000000e+00 0.0000000000000000e+00 
0.0000000000000000e+00 0.0000000000000000e+00 0.0000000000000000e+00 
0.0000000000000000e+00 0.0000000000000000e+00 0.0000000000000000e+00 
0.0000000000000000e+00 0.0000000000000000e+00 0.0000000000000000e+00 
0.0000000000000000e+00 0.0000000000000000e+00 0.0000000000000000e+00 
0.0000000000000000e+00 0.0000000000000000e+00 0.0000000000000000e+00 
0.0000000000000000e+00 0.0000000000000000e+00 0.0000000000000000e+00 
0.0000000000000000e+00 0.0000000000000000e+00 0.0000000000000000e+00 
0.0000000000000000e+00 0.0000000000000000e+00 0.0000000000000000e+00 
0.0000000000000000e+00 0.0000000000000000e+00 0.0000000000000000e+00 
0.0000000000000000e+00 0.0000000000000000e+00 0.0000000000000000e+00 
0.0000000000000000e+00 0.0000000000000000e+00 0.0000000000000000e+00 

VECTORS Stress float
2.0798501256908872e+02 -7.9322030079684760e+00 -2.4603002106712249e-12 
2.0720615638241193e+02 -2.1697294674812845e+01 -3.7275495249721080e-12 
2.0528495882515261e+02 -3.4631322453579216e+01 -2.1189108121460172e-12 
2.0129974199006134e+02 -4.6595680435643970e+01 2.5389681371146633e-13 
1.9526709582393951e+02 -5.7171785885668797e+01 1.1014146864006937e-12 
1.8778406998281767e+02 -6.5645977226859344e+01 4.2446650465902503e-12 
1.7955196316379522e+02 -7.1847575701283120e+01 5.3165445824714262e-12 
1.7157430436754626e+02 -7.5371021864826830e+01 -4.5153814862456621e-13 
1.6382958886482538e+02 -7.7287145064877492e+01 -4.0257679465889173e-12 
1.5653920605540188e+02 -7.7379426438521378e+01 -2.4874588591455093e-12 
1.4912746257833109e+02 -7.6484191498253082e+01 -2.2868177340988850e-12 
1.4199950506524610e+02 -7.3654008710728505e+01 -1.9876795492802786e-12 
1.3331892790710077e+02 -7.0182786668392893e+01 -2.7617546738329866e-13 
1.2154872375477245e+02 -6.6181240949587618e+01 -1.8321324029010044e-12 
1.0682617496570218e+02 -5.8795254519236700e+01 -1.1816566687689714e-12 
-9.0138927393322295e+00 -1.6598513752449218e+01 -4.6764949783739573e-17 
-2.1011853764989311e+01 -3.7903323353683902e+01 1.0319527170855753e-16 
-2.8883202525069652e+01 -5.1857698479511377e+01 2.2324288357176011e-16 
-9.2392433884677459e+01 3.9188820239646867e+00 -1.5298277082087062e-12 
-9.2042128533918813e+01 1.0726581666956788e+01 -1.3076494584272669e-12 
-9.1546698665546089e+01 1.7106833069550618e+01 1.2178622325190355e-12 
-9.0673634814160408e+01 2.3255004321731320e+01 -1.6279742866400109e-12 
-8.9589230421316827e+01 2.8695189444217650e+01 -2.6355150850646240e-12 
-8.8200311657166495e+01 3.3715336074987349e+01 -4.2449573315209025e-12 
-8.6934742949085688e+01 3.7134415484180685e+01 -5.4705602452598417e-12 
-8.5416118754505320e+01 3.9815235646902551e+01 6.2824480527634330e-13 
-8.3794856852928035e+01 4.1234740927370630e+01 5.2566963318336823e-12 
-8.1844439801390592e+01 4.1938619805055325e+01 3.4406997031241553e-12 
-7.9668643403246492e+01 4.1723281348394394e+01 1.1260062853846211e-12 
-7.7180033608820608e+01 4.0916511686118831e+01 1.4367103801108996e-13 
-7.4229581044820947e+01 4.0322977649493282e+01 -5.1497266647573789e-13 
-7.1060721191809222e+01 3.9634657218892968e+01 1.9307342159063380e-12 
-6.8016984168022063e+01 3.8202115016109431e+01 1.6681193570215810e-12 

