# vtk DataFile Version 2.0

ASCII

DATASET UNSTRUCTURED_GRID

POINTS 33 float 

-5.0000000000000003e-02  3.3333333335000000e-02  1.4999999999999997e-01
-5.0000000000000003e-02  9.9999999985000018e-02  1.4999999999999999e-01
-5.0000000000000003e-02  1.6666666665000002e-01  1.4999999999999999e-01
-5.0000000000000003e-02  2.3333333334999998e-01  1.4999999999999999e-01
-5.0000000000000003e-02  2.9999999999999993e-01  1.4999999999999997e-01
-5.0000000000000003e-02  3.6666666665000003e-01  1.4999999999999999e-01
-5.0000000000000003e-02  4.3333333335000002e-01  1.4999999999999999e-01
-5.0000000000000003e-02  5.0000000000000000e-01  1.4999999999999997e-01
-5.0000000000000003e-02  5.6666666664999987e-01  1.4999999999999999e-01
-5.0000000000000003e-02  6.3333333334999986e-01  1.4999999999999999e-01
-5.0000000000000003e-02  6.9999999999999984e-01  1.4999999999999997e-01
-5.0000000000000003e-02  7.6666666664999994e-01  1.4999999999999999e-01
-4.9999999999999996e-02  8.3333333334999982e-01  1.4999999999999999e-01
-5.0000000000000003e-02  8.9999999999999991e-01  1.4999999999999997e-01
-5.0000000000000003e-02  9.6666666664999990e-01  1.4999999999999999e-01
-3.3333333335000000e-02  9.9999999999999978e-01  1.4999999999999997e-01
0.0000000000000000e+00  1.0000000000000000e+00  1.4999999999999997e-01
3.3333333335000007e-02  1.0000000000000000e+00  1.4999999999999999e-01
5.0000000000000003e-02  3.3333333335000000e-02  1.4999999999999999e-01
5.0000000000000003e-02  9.9999999985000004e-02  1.4999999999999999e-01
5.0000000000000003e-02  1.6666666664999999e-01  1.4999999999999999e-01
5.0000000000000003e-02  2.3333333334999998e-01  1.4999999999999999e-01
5.0000000000000003e-02  2.9999999999999993e-01  1.4999999999999997e-01
5.0000000000000003e-02  3.6666666665000003e-01  1.4999999999999999e-01
5.0000000000000003e-02  4.3333333334999991e-01  1.4999999999999999e-01
5.0000000000000003e-02  5.0000000000000000e-01  1.4999999999999997e-01
5.0000000000000003e-02  5.6666666664999987e-01  1.4999999999999999e-01
5.0000000000000003e-02  6.3333333334999997e-01  1.4999999999999999e-01
5.0000000000000003e-02  6.9999999999999984e-01  1.4999999999999997e-01
5.0000000000000003e-02  7.6666666664999994e-01  1.4999999999999999e-01
5.0000000000000003e-02  8.3333333334999993e-01  1.4999999999999999e-01
5.0000000000000010e-02  8.9999999999999991e-01  1.4999999999999999e-01
5.0000000000000003e-02  9.6666666664999990e-01  1.4999999999999999e-01

CELLS 0 0


CELL_TYPES 0


POINT_DATA 33

VECTORS VertexNormals float

0.0000000000000000e+00 0.0000000000000000e+00 0.0000000000000000e+00 
0.0000000000000000e+00 0.0000000000000000e+00 0.0000000000000000e+00 
0.0000000000000000e+00 0.0000000000000000e+00 0.0000000000000000e+00 
0.0000000000000000e+00 0.0000000000000000e+00 0.0000000000000000e+00 
0.0000000000000000e+00 0.0000000000000000e+00 0.0000000000000000e+00 
0.0000000000000000e+00 0.0000000000000000e+00 0.0000000000000000e+00 
0.0000000000000000e+00 0.0000000000000000e+00 0.0000000000000000e+00 
0.0000000000000000e+00 0.0000000000000000e+00 0.0000000000000000e+00 
0.0000000000000000e+00 0.0000000000000000e+00 0.0000000000000000e+00 
0.0000000000000000e+00 0.0000000000000000e+00 0.0000000000000000e+00 
0.0000000000000000e+00 0.0000000000000000e+00 0.0000000000000000e+00 
0.0000000000000000e+00 0.0000000000000000e+00 0.0000000000000000e+00 
0.0000000000000000e+00 0.0000000000000000e+00 0.0000000000000000e+00 
0.0000000000000000e+00 0.0000000000000000e+00 0.0000000000000000e+00 
0.0000000000000000e+00 0.0000000000000000e+00 0.0000000000000000e+00 
0.0000000000000000e+00 0.0000000000000000e+00 0.0000000000000000e+00 
0.0000000000000000e+00 0.0000000000000000e+00 0.0000000000000000e+00 
0.0000000000000000e+00 0.0000000000000000e+00 0.0000000000000000e+00 
0.0000000000000000e+00 0.0000000000000000e+00 0.0000000000000000e+00 
0.0000000000000000e+00 0.0000000000000000e+00 0.0000000000000000e+00 
0.0000000000000000e+00 0.0000000000000000e+00 0.0000000000000000e+00 
0.0000000000000000e+00 0.0000000000000000e+00 0.0000000000000000e+00 
0.0000000000000000e+00 0.0000000000000000e+00 0.0000000000000000e+00 
0.0000000000000000e+00 0.0000000000000000e+00 0.0000000000000000e+00 
0.0000000000000000e+00 0.0000000000000000e+00 0.0000000000000000e+00 
0.0000000000000000e+00 0.0000000000000000e+00 0.0000000000000000e+00 
0.0000000000000000e+00 0.0000000000000000e+00 0.0000000000000000e+00 
0.0000000000000000e+00 0.0000000000000000e+00 0.0000000000000000e+00 
0.0000000000000000e+00 0.0000000000000000e+00 0.0000000000000000e+00 
0.0000000000000000e+00 0.0000000000000000e+00 0.0000000000000000e+00 
0.0000000000000000e+00 0.0000000000000000e+00 0.0000000000000000e+00 
0.0000000000000000e+00 0.0000000000000000e+00 0.0000000000000000e+00 
0.0000000000000000e+00 0.0000000000000000e+00 0.0000000000000000e+00 

VECTORS Stress float
1.1025444847261456e+02 -3.8675287487175334e+00 -8.2735789850391585e-13 
1.1028517835289260e+02 -7.5543284048256902e+00 -1.0969174971862148e-12 
1.0993347641661160e+02 -1.0142785655745920e+01 1.0359718064642812e-13 
1.0912883913856490e+02 -1.1582025577981852e+01 1.0417483925284319e-12 
1.0775115815497267e+02 -1.2756126148528159e+01 6.6186641582052263e-13 
1.0604614829339090e+02 -1.2895450611875992e+01 2.7235718345554008e-13 
1.0432804527131169e+02 -1.1349112342268898e+01 3.1045724073115922e-13 
1.0249833935013582e+02 -8.2289927941699066e+00 1.9303670097388346e-14 
9.9914817825463501e+01 -5.1146346379225704e+00 4.7165256607380291e-14 
9.6097937106354678e+01 -2.9770078321516649e+00 6.7957267093359455e-14 
9.0978047241249698e+01 -6.2660193992556268e-01 -7.8501120511449934e-14 
8.3731317117484735e+01 1.0682421544374259e+00 -1.3069677937266869e-13 
7.2891749337207202e+01 1.8000402866877732e+00 1.5588219108195993e-13 
5.5611720081808031e+01 1.6557256698604110e+00 8.0559334383153759e-13 
2.4061669869930117e+01 1.0541302881628507e+00 5.9874130732041885e-13 
-4.0292396162414050e+00 1.4635404994924195e+02 2.4712301327330978e-17 
-3.5708262128222956e+00 1.2750387967044654e+02 2.4236125814919040e-20 
-3.1884301688299903e+00 1.0330836527120888e+02 8.0733649549942864e-17 
7.4526545577639254e+01 -2.8921593057623776e+00 -2.3762097624891440e-16 
7.4223777940107098e+01 -5.2870004113670479e+00 -1.1312177847676126e-13 
7.4278074592915743e+01 -6.9566016672191990e+00 -9.4752179604160287e-14 
7.4849946240299133e+01 -8.2199055514761294e+00 -6.8071109197079182e-13 
7.6161698187272847e+01 -8.9312278704364676e+00 -7.0353024888378699e-13 
7.8349158652466741e+01 -9.4396858980413292e+00 7.3835284989666340e-14 
8.1736791297384357e+01 -8.5623129500102504e+00 3.1092152001808653e-13 
8.5896193816469861e+01 -6.6011930135544636e+00 2.2825464202790677e-13 
8.9789755555398912e+01 -4.4171620986080127e+00 -1.9102882507206064e-13 
9.2619215794265457e+01 -2.7672950283798992e+00 -1.8234103149358550e-13 
9.4357859465698724e+01 -5.8363123591044341e-01 4.6238882142822850e-13 
9.4618975863062232e+01 1.1352607988237988e+00 4.9879714283438328e-13 
9.3382918712244148e+01 2.1181140021052949e+00 -6.1389609225135927e-13 
9.1025210272590058e+01 2.2689474194146353e+00 -1.3534153739634985e-12 
8.7920506551307113e+01 2.7126585907278997e+00 -7.0003529073670636e-13 

