# vtk DataFile Version 2.0

ASCII

DATASET UNSTRUCTURED_GRID

POINTS 33 float 

-5.0000000000000003e-02  3.3333333335000000e-02  1.4999999999999997e-01
-5.0000000000000003e-02  9.9999999985000018e-02  1.4999999999999999e-01
-5.0000000000000003e-02  1.6666666665000002e-01  1.4999999999999999e-01
-5.0000000000000003e-02  2.3333333334999998e-01  1.4999999999999999e-01
-5.0000000000000003e-02  2.9999999999999993e-01  1.4999999999999997e-01
-5.0000000000000003e-02  3.6666666665000003e-01  1.4999999999999999e-01
-5.0000000000000003e-02  4.3333333335000002e-01  1.4999999999999999e-01
-5.0000000000000003e-02  5.0000000000000000e-01  1.4999999999999997e-01
-5.0000000000000003e-02  5.6666666664999987e-01  1.4999999999999999e-01
-5.0000000000000003e-02  6.3333333334999986e-01  1.4999999999999999e-01
-5.0000000000000003e-02  6.9999999999999984e-01  1.4999999999999997e-01
-5.0000000000000003e-02  7.6666666664999994e-01  1.4999999999999999e-01
-4.9999999999999996e-02  8.3333333334999982e-01  1.4999999999999999e-01
-5.0000000000000003e-02  8.9999999999999991e-01  1.4999999999999997e-01
-5.0000000000000003e-02  9.6666666664999990e-01  1.4999999999999999e-01
-3.3333333335000000e-02  9.9999999999999978e-01  1.4999999999999997e-01
0.0000000000000000e+00  1.0000000000000000e+00  1.4999999999999997e-01
3.3333333335000007e-02  1.0000000000000000e+00  1.4999999999999999e-01
5.0000000000000003e-02  3.3333333335000000e-02  1.4999999999999999e-01
5.0000000000000003e-02  9.9999999985000004e-02  1.4999999999999999e-01
5.0000000000000003e-02  1.6666666664999999e-01  1.4999999999999999e-01
5.0000000000000003e-02  2.3333333334999998e-01  1.4999999999999999e-01
5.0000000000000003e-02  2.9999999999999993e-01  1.4999999999999997e-01
5.0000000000000003e-02  3.6666666665000003e-01  1.4999999999999999e-01
5.0000000000000003e-02  4.3333333334999991e-01  1.4999999999999999e-01
5.0000000000000003e-02  5.0000000000000000e-01  1.4999999999999997e-01
5.0000000000000003e-02  5.6666666664999987e-01  1.4999999999999999e-01
5.0000000000000003e-02  6.3333333334999997e-01  1.4999999999999999e-01
5.0000000000000003e-02  6.9999999999999984e-01  1.4999999999999997e-01
5.0000000000000003e-02  7.6666666664999994e-01  1.4999999999999999e-01
5.0000000000000003e-02  8.3333333334999993e-01  1.4999999999999999e-01
5.0000000000000010e-02  8.9999999999999991e-01  1.4999999999999999e-01
5.0000000000000003e-02  9.6666666664999990e-01  1.4999999999999999e-01

CELLS 0 0


CELL_TYPES 0


POINT_DATA 33

VECTORS VertexNormals float

0.0000000000000000e+00 0.0000000000000000e+00 0.0000000000000000e+00 
0.0000000000000000e+00 0.0000000000000000e+00 0.0000000000000000e+00 
0.0000000000000000e+00 0.0000000000000000e+00 0.0000000000000000e+00 
0.0000000000000000e+00 0.0000000000000000e+00 0.0000000000000000e+00 
0.0000000000000000e+00 0.0000000000000000e+00 0.0000000000000000e+00 
0.0000000000000000e+00 0.0000000000000000e+00 0.0000000000000000e+00 
0.0000000000000000e+00 0.0000000000000000e+00 0.0000000000000000e+00 
0.0000000000000000e+00 0.0000000000000000e+00 0.0000000000000000e+00 
0.0000000000000000e+00 0.0000000000000000e+00 0.0000000000000000e+00 
0.0000000000000000e+00 0.0000000000000000e+00 0.0000000000000000e+00 
0.0000000000000000e+00 0.0000000000000000e+00 0.0000000000000000e+00 
0.0000000000000000e+00 0.0000000000000000e+00 0.0000000000000000e+00 
0.0000000000000000e+00 0.0000000000000000e+00 0.0000000000000000e+00 
0.0000000000000000e+00 0.0000000000000000e+00 0.0000000000000000e+00 
0.0000000000000000e+00 0.0000000000000000e+00 0.0000000000000000e+00 
0.0000000000000000e+00 0.0000000000000000e+00 0.0000000000000000e+00 
0.0000000000000000e+00 0.0000000000000000e+00 0.0000000000000000e+00 
0.0000000000000000e+00 0.0000000000000000e+00 0.0000000000000000e+00 
0.0000000000000000e+00 0.0000000000000000e+00 0.0000000000000000e+00 
0.0000000000000000e+00 0.0000000000000000e+00 0.0000000000000000e+00 
0.0000000000000000e+00 0.0000000000000000e+00 0.0000000000000000e+00 
0.0000000000000000e+00 0.0000000000000000e+00 0.0000000000000000e+00 
0.0000000000000000e+00 0.0000000000000000e+00 0.0000000000000000e+00 
0.0000000000000000e+00 0.0000000000000000e+00 0.0000000000000000e+00 
0.0000000000000000e+00 0.0000000000000000e+00 0.0000000000000000e+00 
0.0000000000000000e+00 0.0000000000000000e+00 0.0000000000000000e+00 
0.0000000000000000e+00 0.0000000000000000e+00 0.0000000000000000e+00 
0.0000000000000000e+00 0.0000000000000000e+00 0.0000000000000000e+00 
0.0000000000000000e+00 0.0000000000000000e+00 0.0000000000000000e+00 
0.0000000000000000e+00 0.0000000000000000e+00 0.0000000000000000e+00 
0.0000000000000000e+00 0.0000000000000000e+00 0.0000000000000000e+00 
0.0000000000000000e+00 0.0000000000000000e+00 0.0000000000000000e+00 
0.0000000000000000e+00 0.0000000000000000e+00 0.0000000000000000e+00 

VECTORS Stress float
1.5687211377836380e+02 -4.8807327609087672e+00 -1.0647881646398491e-12 
1.5683097386702778e+02 -1.1172535304018801e+01 -5.3119142635913640e-13 
1.5620038838808824e+02 -1.8666580897623188e+01 6.7110613861481616e-13 
1.5430485534945726e+02 -2.5705319081794471e+01 5.6975823892648587e-13 
1.5099848144791378e+02 -3.1967527212040956e+01 4.2940971322325294e-13 
1.4674941001165541e+02 -3.6315697235261716e+01 2.0895813004460632e-12 
1.4201473862647364e+02 -3.8354767042425571e+01 3.3873013195291061e-12 
1.3575740658290093e+02 -4.0997921296431713e+01 5.3442959995067254e-13 
1.2901483078765813e+02 -4.1688324109091944e+01 -3.2256044115402225e-12 
1.2125293780951380e+02 -4.2067201015739101e+01 -2.4518994373391491e-12 
1.1300894677362122e+02 -4.0819607776134163e+01 2.8217655091161510e-12 
1.0348284705197203e+02 -3.8826891435232284e+01 4.5223909021654560e-12 
9.2169298239477158e+01 -3.6001731261044583e+01 3.0475428868551693e-12 
7.9031290988004770e+01 -3.1178194041062433e+01 1.7265759569514673e-12 
6.1066282516476804e+01 -2.3850547364474298e+01 3.7380139591586382e-13 
1.6856332569723204e+01 4.2548803168313164e+01 1.4844699365588599e-16 
8.8046401171903348e+00 2.2379861147167446e+01 -8.5316572951387578e-17 
2.9132267544870736e+00 7.7491629861077431e+00 9.1464100465633297e-17 
-3.7844356722087547e+01 1.2238230270783239e+00 1.1323334045785715e-12 
-3.7951891457324244e+01 2.9682158693351148e+00 1.0140001325387118e-12 
-3.7790571988163755e+01 4.8705956990004955e+00 -1.5556393200939872e-13 
-3.7216886143527901e+01 6.7045212197571242e+00 -1.1098146114507054e-12 
-3.6094143216431192e+01 8.2398321712025027e+00 -1.0829549565955664e-12 
-3.4412442559622271e+01 8.9892278466265267e+00 -9.8344508428338056e-13 
-3.2211865770062012e+01 9.3120476708638211e+00 -1.9782734577177080e-12 
-2.9686940842072293e+01 9.4417617237561515e+00 4.3068688596029747e-14 
-2.6886580764072985e+01 9.2091634305995314e+00 3.3275202133590574e-12 
-2.3815837450015984e+01 8.6672611038255027e+00 2.2945436077173472e-12 
-2.0618574736450967e+01 7.8860476903006909e+00 -1.1715737326923614e-12 
-1.7374578699189662e+01 6.9159265540615538e+00 -2.4574340706459199e-12 
-1.4113025658177063e+01 5.8468974395141249e+00 -2.4241148401478147e-12 
-1.0923331776020692e+01 4.6148261308662883e+00 -7.0139620280894829e-13 
-8.1625605529380483e+00 3.5142784627570327e+00 5.1644877147275504e-13 

