# vtk DataFile Version 2.0

ASCII

DATASET UNSTRUCTURED_GRID

POINTS 33 float 

-5.0000000000000003e-02  3.3333333335000000e-02  1.4999999999999997e-01
-5.0000000000000003e-02  9.9999999985000018e-02  1.4999999999999999e-01
-5.0000000000000003e-02  1.6666666665000002e-01  1.4999999999999999e-01
-5.0000000000000003e-02  2.3333333334999998e-01  1.4999999999999999e-01
-5.0000000000000003e-02  2.9999999999999993e-01  1.4999999999999997e-01
-5.0000000000000003e-02  3.6666666665000003e-01  1.4999999999999999e-01
-5.0000000000000003e-02  4.3333333335000002e-01  1.4999999999999999e-01
-5.0000000000000003e-02  5.0000000000000000e-01  1.4999999999999997e-01
-5.0000000000000003e-02  5.6666666664999987e-01  1.4999999999999999e-01
-5.0000000000000003e-02  6.3333333334999986e-01  1.4999999999999999e-01
-5.0000000000000003e-02  6.9999999999999984e-01  1.4999999999999997e-01
-5.0000000000000003e-02  7.6666666664999994e-01  1.4999999999999999e-01
-4.9999999999999996e-02  8.3333333334999982e-01  1.4999999999999999e-01
-5.0000000000000003e-02  8.9999999999999991e-01  1.4999999999999997e-01
-5.0000000000000003e-02  9.6666666664999990e-01  1.4999999999999999e-01
-3.3333333335000000e-02  9.9999999999999978e-01  1.4999999999999997e-01
0.0000000000000000e+00  1.0000000000000000e+00  1.4999999999999997e-01
3.3333333335000007e-02  1.0000000000000000e+00  1.4999999999999999e-01
5.0000000000000003e-02  3.3333333335000000e-02  1.4999999999999999e-01
5.0000000000000003e-02  9.9999999985000004e-02  1.4999999999999999e-01
5.0000000000000003e-02  1.6666666664999999e-01  1.4999999999999999e-01
5.0000000000000003e-02  2.3333333334999998e-01  1.4999999999999999e-01
5.0000000000000003e-02  2.9999999999999993e-01  1.4999999999999997e-01
5.0000000000000003e-02  3.6666666665000003e-01  1.4999999999999999e-01
5.0000000000000003e-02  4.3333333334999991e-01  1.4999999999999999e-01
5.0000000000000003e-02  5.0000000000000000e-01  1.4999999999999997e-01
5.0000000000000003e-02  5.6666666664999987e-01  1.4999999999999999e-01
5.0000000000000003e-02  6.3333333334999997e-01  1.4999999999999999e-01
5.0000000000000003e-02  6.9999999999999984e-01  1.4999999999999997e-01
5.0000000000000003e-02  7.6666666664999994e-01  1.4999999999999999e-01
5.0000000000000003e-02  8.3333333334999993e-01  1.4999999999999999e-01
5.0000000000000010e-02  8.9999999999999991e-01  1.4999999999999999e-01
5.0000000000000003e-02  9.6666666664999990e-01  1.4999999999999999e-01

CELLS 0 0


CELL_TYPES 0


POINT_DATA 33

VECTORS VertexNormals float

0.0000000000000000e+00 0.0000000000000000e+00 0.0000000000000000e+00 
0.0000000000000000e+00 0.0000000000000000e+00 0.0000000000000000e+00 
0.0000000000000000e+00 0.0000000000000000e+00 0.0000000000000000e+00 
0.0000000000000000e+00 0.0000000000000000e+00 0.0000000000000000e+00 
0.0000000000000000e+00 0.0000000000000000e+00 0.0000000000000000e+00 
0.0000000000000000e+00 0.0000000000000000e+00 0.0000000000000000e+00 
0.0000000000000000e+00 0.0000000000000000e+00 0.0000000000000000e+00 
0.0000000000000000e+00 0.0000000000000000e+00 0.0000000000000000e+00 
0.0000000000000000e+00 0.0000000000000000e+00 0.0000000000000000e+00 
0.0000000000000000e+00 0.0000000000000000e+00 0.0000000000000000e+00 
0.0000000000000000e+00 0.0000000000000000e+00 0.0000000000000000e+00 
0.0000000000000000e+00 0.0000000000000000e+00 0.0000000000000000e+00 
0.0000000000000000e+00 0.0000000000000000e+00 0.0000000000000000e+00 
0.0000000000000000e+00 0.0000000000000000e+00 0.0000000000000000e+00 
0.0000000000000000e+00 0.0000000000000000e+00 0.0000000000000000e+00 
0.0000000000000000e+00 0.0000000000000000e+00 0.0000000000000000e+00 
0.0000000000000000e+00 0.0000000000000000e+00 0.0000000000000000e+00 
0.0000000000000000e+00 0.0000000000000000e+00 0.0000000000000000e+00 
0.0000000000000000e+00 0.0000000000000000e+00 0.0000000000000000e+00 
0.0000000000000000e+00 0.0000000000000000e+00 0.0000000000000000e+00 
0.0000000000000000e+00 0.0000000000000000e+00 0.0000000000000000e+00 
0.0000000000000000e+00 0.0000000000000000e+00 0.0000000000000000e+00 
0.0000000000000000e+00 0.0000000000000000e+00 0.0000000000000000e+00 
0.0000000000000000e+00 0.0000000000000000e+00 0.0000000000000000e+00 
0.0000000000000000e+00 0.0000000000000000e+00 0.0000000000000000e+00 
0.0000000000000000e+00 0.0000000000000000e+00 0.0000000000000000e+00 
0.0000000000000000e+00 0.0000000000000000e+00 0.0000000000000000e+00 
0.0000000000000000e+00 0.0000000000000000e+00 0.0000000000000000e+00 
0.0000000000000000e+00 0.0000000000000000e+00 0.0000000000000000e+00 
0.0000000000000000e+00 0.0000000000000000e+00 0.0000000000000000e+00 
0.0000000000000000e+00 0.0000000000000000e+00 0.0000000000000000e+00 
0.0000000000000000e+00 0.0000000000000000e+00 0.0000000000000000e+00 
0.0000000000000000e+00 0.0000000000000000e+00 0.0000000000000000e+00 

VECTORS Stress float
1.1076040186305009e+02 -3.7778132326660026e+00 9.9405994195629769e-13 
1.1081245158527253e+02 -7.5209900196243220e+00 1.2073265651668585e-12 
1.1045998369458462e+02 -1.0258542370160294e+01 -3.5816193871370729e-14 
1.0951858362440058e+02 -1.2611349110396851e+01 -1.1116274366251573e-12 
1.0814708880512019e+02 -1.3701643970390453e+01 -8.5117021495879984e-13 
1.0656566472730032e+02 -1.3575757860053766e+01 -4.0006272895259453e-13 
1.0504260845564833e+02 -1.1286903225415674e+01 -3.8448785767903896e-13 
1.0309881324147075e+02 -8.3253027522809866e+00 -3.5767047414157292e-13 
1.0025712841758390e+02 -5.8564213601019963e+00 -9.8668725694085368e-13 
9.6454111003318104e+01 -3.2373630239792117e+00 -6.1678259137653873e-13 
9.1282755174533222e+01 -8.0364203682887392e-01 -1.1976885008233196e-13 
8.3801864110659196e+01 5.4688344290004842e-01 4.1832293394566363e-13 
7.2788475688392055e+01 1.1231381271264591e+00 1.3740829390674206e-12 
5.5781033792886795e+01 1.4839674783388106e+00 8.9125752752187665e-13 
2.4164574465440765e+01 8.3142129048303981e-01 5.4771833052536074e-14 
-2.0251516207941105e+00 1.4464863680619521e+02 -1.2279503591738517e-17 
-1.9909400066374479e+00 1.2567833539220103e+02 9.0955068379433098e-17 
-1.8667602499397513e+00 1.0184947068655556e+02 -8.0546471200152278e-17 
7.2867494415789366e+01 -2.8091982481029842e+00 -6.9773459454531520e-13 
7.2564331671973477e+01 -5.1320726954232274e+00 -1.1173990720220326e-12 
7.2561396336560009e+01 -7.0568691794677232e+00 1.5298622858722650e-15 
7.3071658982262207e+01 -8.4921174793120286e+00 1.4525426753746031e-12 
7.4323765596850464e+01 -9.5406414941004680e+00 1.0417644109228312e-12 
7.6713786109968410e+01 -9.5566487598555696e+00 3.7748071814526805e-13 
8.0285480556699682e+01 -8.3088290359177623e+00 3.2980693259624890e-13 
8.4320574347373338e+01 -6.4893645356358949e+00 4.1951772326934455e-13 
8.7931735317880467e+01 -4.9267889715767881e+00 1.1413197483025017e-12 
9.0848527000778986e+01 -2.8908987654743177e+00 6.7232257243164335e-13 
9.2598315712373235e+01 -8.1429645274644380e-01 3.7075517240377509e-14 
9.2809946882255716e+01 6.6718116270955907e-01 -5.7396174649269333e-13 
9.1612863627987181e+01 1.1237744174236124e+00 -1.4777907172803629e-12 
8.9551672581385091e+01 2.1672225227386486e+00 -1.3384520066468233e-12 
8.6483414483622497e+01 1.6795071246740227e+00 -4.7147953533411689e-13 

