# vtk DataFile Version 2.0

ASCII

DATASET UNSTRUCTURED_GRID

POINTS 33 float 

-5.0000000000000003e-02  3.3333333335000000e-02  1.4999999999999997e-01
-5.0000000000000003e-02  9.9999999985000018e-02  1.4999999999999999e-01
-5.0000000000000003e-02  1.6666666665000002e-01  1.4999999999999999e-01
-5.0000000000000003e-02  2.3333333334999998e-01  1.4999999999999999e-01
-5.0000000000000003e-02  2.9999999999999993e-01  1.4999999999999997e-01
-5.0000000000000003e-02  3.6666666665000003e-01  1.4999999999999999e-01
-5.0000000000000003e-02  4.3333333335000002e-01  1.4999999999999999e-01
-5.0000000000000003e-02  5.0000000000000000e-01  1.4999999999999997e-01
-5.0000000000000003e-02  5.6666666664999987e-01  1.4999999999999999e-01
-5.0000000000000003e-02  6.3333333334999986e-01  1.4999999999999999e-01
-5.0000000000000003e-02  6.9999999999999984e-01  1.4999999999999997e-01
-5.0000000000000003e-02  7.6666666664999994e-01  1.4999999999999999e-01
-4.9999999999999996e-02  8.3333333334999982e-01  1.4999999999999999e-01
-5.0000000000000003e-02  8.9999999999999991e-01  1.4999999999999997e-01
-5.0000000000000003e-02  9.6666666664999990e-01  1.4999999999999999e-01
-3.3333333335000000e-02  9.9999999999999978e-01  1.4999999999999997e-01
0.0000000000000000e+00  1.0000000000000000e+00  1.4999999999999997e-01
3.3333333335000007e-02  1.0000000000000000e+00  1.4999999999999999e-01
5.0000000000000003e-02  3.3333333335000000e-02  1.4999999999999999e-01
5.0000000000000003e-02  9.9999999985000004e-02  1.4999999999999999e-01
5.0000000000000003e-02  1.6666666664999999e-01  1.4999999999999999e-01
5.0000000000000003e-02  2.3333333334999998e-01  1.4999999999999999e-01
5.0000000000000003e-02  2.9999999999999993e-01  1.4999999999999997e-01
5.0000000000000003e-02  3.6666666665000003e-01  1.4999999999999999e-01
5.0000000000000003e-02  4.3333333334999991e-01  1.4999999999999999e-01
5.0000000000000003e-02  5.0000000000000000e-01  1.4999999999999997e-01
5.0000000000000003e-02  5.6666666664999987e-01  1.4999999999999999e-01
5.0000000000000003e-02  6.3333333334999997e-01  1.4999999999999999e-01
5.0000000000000003e-02  6.9999999999999984e-01  1.4999999999999997e-01
5.0000000000000003e-02  7.6666666664999994e-01  1.4999999999999999e-01
5.0000000000000003e-02  8.3333333334999993e-01  1.4999999999999999e-01
5.0000000000000010e-02  8.9999999999999991e-01  1.4999999999999999e-01
5.0000000000000003e-02  9.6666666664999990e-01  1.4999999999999999e-01

CELLS 0 0


CELL_TYPES 0


POINT_DATA 33

VECTORS VertexNormals float

0.0000000000000000e+00 0.0000000000000000e+00 0.0000000000000000e+00 
0.0000000000000000e+00 0.0000000000000000e+00 0.0000000000000000e+00 
0.0000000000000000e+00 0.0000000000000000e+00 0.0000000000000000e+00 
0.0000000000000000e+00 0.0000000000000000e+00 0.0000000000000000e+00 
0.0000000000000000e+00 0.0000000000000000e+00 0.0000000000000000e+00 
0.0000000000000000e+00 0.0000000000000000e+00 0.0000000000000000e+00 
0.0000000000000000e+00 0.0000000000000000e+00 0.0000000000000000e+00 
0.0000000000000000e+00 0.0000000000000000e+00 0.0000000000000000e+00 
0.0000000000000000e+00 0.0000000000000000e+00 0.0000000000000000e+00 
0.0000000000000000e+00 0.0000000000000000e+00 0.0000000000000000e+00 
0.0000000000000000e+00 0.0000000000000000e+00 0.0000000000000000e+00 
0.0000000000000000e+00 0.0000000000000000e+00 0.0000000000000000e+00 
0.0000000000000000e+00 0.0000000000000000e+00 0.0000000000000000e+00 
0.0000000000000000e+00 0.0000000000000000e+00 0.0000000000000000e+00 
0.0000000000000000e+00 0.0000000000000000e+00 0.0000000000000000e+00 
0.0000000000000000e+00 0.0000000000000000e+00 0.0000000000000000e+00 
0.0000000000000000e+00 0.0000000000000000e+00 0.0000000000000000e+00 
0.0000000000000000e+00 0.0000000000000000e+00 0.0000000000000000e+00 
0.0000000000000000e+00 0.0000000000000000e+00 0.0000000000000000e+00 
0.0000000000000000e+00 0.0000000000000000e+00 0.0000000000000000e+00 
0.0000000000000000e+00 0.0000000000000000e+00 0.0000000000000000e+00 
0.0000000000000000e+00 0.0000000000000000e+00 0.0000000000000000e+00 
0.0000000000000000e+00 0.0000000000000000e+00 0.0000000000000000e+00 
0.0000000000000000e+00 0.0000000000000000e+00 0.0000000000000000e+00 
0.0000000000000000e+00 0.0000000000000000e+00 0.0000000000000000e+00 
0.0000000000000000e+00 0.0000000000000000e+00 0.0000000000000000e+00 
0.0000000000000000e+00 0.0000000000000000e+00 0.0000000000000000e+00 
0.0000000000000000e+00 0.0000000000000000e+00 0.0000000000000000e+00 
0.0000000000000000e+00 0.0000000000000000e+00 0.0000000000000000e+00 
0.0000000000000000e+00 0.0000000000000000e+00 0.0000000000000000e+00 
0.0000000000000000e+00 0.0000000000000000e+00 0.0000000000000000e+00 
0.0000000000000000e+00 0.0000000000000000e+00 0.0000000000000000e+00 
0.0000000000000000e+00 0.0000000000000000e+00 0.0000000000000000e+00 

VECTORS Stress float
1.1004164948270405e+02 -3.5189055173767905e+00 -1.0653997425368701e-12 
1.1005359832817919e+02 -6.8480631492006685e+00 -1.3918158065964895e-12 
1.0967134699184156e+02 -9.1551942369410035e+00 1.5383903525331874e-13 
1.0884752803974426e+02 -1.0490917921029663e+01 1.2960885490691287e-12 
1.0769985204666152e+02 -1.0268273134054791e+01 8.0718771023115618e-13 
1.0614414184024535e+02 -9.4611204536676361e+00 1.9918647130561884e-13 
1.0412517029490934e+02 -8.4020594157000019e+00 4.0633706939921474e-13 
1.0165861821906248e+02 -7.1644033255407651e+00 2.5487637872812064e-13 
9.8860687945788584e+01 -5.3179052559743960e+00 4.6574067265663527e-13 
9.5642840366904466e+01 -2.3592664511918149e+00 4.1643030694527287e-13 
9.1213499317362860e+01 7.7428957272741794e-01 -5.7603461216669161e-13 
8.4230592730626228e+01 2.3730137427192535e+00 -9.6942140750913442e-13 
7.3478906687298220e+01 3.0119021434982858e+00 -5.9473490296824911e-13 
5.6188774544844698e+01 2.7714286128243493e+00 -2.0281657661899681e-13 
2.3866466525083140e+01 1.5899527076357478e+00 1.7178990952417815e-16 
-7.5545214822636817e+00 1.5554716845591534e+02 7.9469711633629692e-17 
-6.5584701899652238e+00 1.3661690386273889e+02 1.2643636203873149e-16 
-5.6081548777120656e+00 1.1042693323818882e+02 -6.5262484062649030e-20 
8.1960567024917523e+01 -2.7557261104987418e+00 2.3616300881276245e-13 
8.1697379834926224e+01 -5.3130164349716225e+00 6.6951712263630829e-13 
8.1805021664929214e+01 -7.0714590108960813e+00 4.0294116157111733e-13 
8.2537188915147667e+01 -7.8970776236051732e+00 -3.2394224743646496e-13 
8.4044356556355638e+01 -8.0185311634078626e+00 -2.9421164641772705e-13 
8.6368760091630406e+01 -7.5414361661445790e+00 -3.9128414998040252e-13 
8.9329296744502727e+01 -7.0323706586302297e+00 -3.5167751680742005e-13 
9.2758220557504586e+01 -6.3742077582707504e+00 8.3073062420567974e-14 
9.6513971496634568e+01 -5.0001981854521178e+00 -4.7084704288946314e-13 
1.0013714255109716e+02 -2.3081994527908267e+00 -5.1492408564737940e-13 
1.0249102690029559e+02 8.5747496509003540e-01 7.6661718288939777e-13 
1.0267278655046916e+02 2.7246073819683421e+00 1.3413909986256347e-12 
1.0105618632910873e+02 3.9801891295733460e+00 9.5911537723496953e-13 
9.8085422277250927e+01 4.3685282996532768e+00 6.1909729800314714e-13 
9.4158347385587305e+01 4.7599219127168970e+00 2.3480227149244701e-13 

