# vtk DataFile Version 2.0

ASCII

DATASET UNSTRUCTURED_GRID

POINTS 237 float 

-5.0000000000000003e-02  0.0000000000000000e+00  0.0000000000000000e+00
-5.0000000000000003e-02  5.5555555555555552e-02  0.0000000000000000e+00
-5.0000000000000003e-02  0.0000000000000000e+00  2.9999999999999999e-01
-5.0000000000000003e-02  5.5555555555555552e-02  2.9999999999999999e-01
-5.0000000000000003e-02  2.7777777777777776e-02  0.0000000000000000e+00
-5.0000000000000003e-02  2.7777777777777776e-02  2.9999999999999999e-01
-5.0000000000000003e-02  0.0000000000000000e+00  1.4999999999999999e-01
-5.0000000000000003e-02  5.5555555555555552e-02  1.4999999999999999e-01
-5.0000000000000003e-02  2.7777777777777776e-02  1.4999999999999999e-01
5.0000000000000003e-02  0.0000000000000000e+00  0.0000000000000000e+00
5.0000000000000003e-02  5.5555555555555552e-02  0.0000000000000000e+00
5.0000000000000003e-02  0.0000000000000000e+00  2.9999999999999999e-01
5.0000000000000003e-02  5.5555555555555552e-02  2.9999999999999999e-01
5.0000000000000003e-02  2.7777777777777776e-02  0.0000000000000000e+00
5.0000000000000003e-02  2.7777777777777776e-02  2.9999999999999999e-01
5.0000000000000003e-02  0.0000000000000000e+00  1.4999999999999999e-01
5.0000000000000003e-02  5.5555555555555552e-02  1.4999999999999999e-01
5.0000000000000003e-02  2.7777777777777776e-02  1.4999999999999999e-01
-5.0000000000000003e-02  1.1111111111111110e-01  0.0000000000000000e+00
-5.0000000000000003e-02  1.1111111111111110e-01  2.9999999999999999e-01
-5.0000000000000003e-02  8.3333333333333329e-02  0.0000000000000000e+00
-5.0000000000000003e-02  8.3333333333333329e-02  2.9999999999999999e-01
-5.0000000000000003e-02  1.1111111111111110e-01  1.4999999999999999e-01
-5.0000000000000003e-02  8.3333333333333329e-02  1.4999999999999999e-01
5.0000000000000003e-02  1.1111111111111110e-01  0.0000000000000000e+00
5.0000000000000003e-02  1.1111111111111110e-01  2.9999999999999999e-01
5.0000000000000003e-02  8.3333333333333329e-02  0.0000000000000000e+00
5.0000000000000003e-02  8.3333333333333329e-02  2.9999999999999999e-01
5.0000000000000003e-02  1.1111111111111110e-01  1.4999999999999999e-01
5.0000000000000003e-02  8.3333333333333329e-02  1.4999999999999999e-01
-5.0000000000000003e-02  1.6666666666666666e-01  0.0000000000000000e+00
-5.0000000000000003e-02  1.6666666666666666e-01  2.9999999999999999e-01
-5.0000000000000003e-02  1.3888888888888890e-01  0.0000000000000000e+00
-5.0000000000000003e-02  1.3888888888888890e-01  2.9999999999999999e-01
-5.0000000000000003e-02  1.6666666666666666e-01  1.4999999999999999e-01
-5.0000000000000003e-02  1.3888888888888890e-01  1.4999999999999999e-01
5.0000000000000003e-02  1.6666666666666666e-01  0.0000000000000000e+00
5.0000000000000003e-02  1.6666666666666666e-01  2.9999999999999999e-01
5.0000000000000003e-02  1.3888888888888890e-01  0.0000000000000000e+00
5.0000000000000003e-02  1.3888888888888890e-01  2.9999999999999999e-01
5.0000000000000003e-02  1.6666666666666666e-01  1.4999999999999999e-01
5.0000000000000003e-02  1.3888888888888890e-01  1.4999999999999999e-01
-5.0000000000000003e-02  2.2222222222222221e-01  0.0000000000000000e+00
-5.0000000000000003e-02  2.2222222222222221e-01  2.9999999999999999e-01
-5.0000000000000003e-02  1.9444444444444442e-01  0.0000000000000000e+00
-5.0000000000000003e-02  1.9444444444444442e-01  2.9999999999999999e-01
-5.0000000000000003e-02  2.2222222222222221e-01  1.4999999999999999e-01
-5.0000000000000003e-02  1.9444444444444442e-01  1.4999999999999999e-01
5.0000000000000003e-02  2.2222222222222221e-01  0.0000000000000000e+00
5.0000000000000003e-02  2.2222222222222221e-01  2.9999999999999999e-01
5.0000000000000003e-02  1.9444444444444442e-01  0.0000000000000000e+00
5.0000000000000003e-02  1.9444444444444442e-01  2.9999999999999999e-01
5.0000000000000003e-02  2.2222222222222221e-01  1.4999999999999999e-01
5.0000000000000003e-02  1.9444444444444442e-01  1.4999999999999999e-01
-5.0000000000000003e-02  2.7777777777777779e-01  0.0000000000000000e+00
-5.0000000000000003e-02  2.7777777777777779e-01  2.9999999999999999e-01
-5.0000000000000003e-02  2.5000000000000000e-01  0.0000000000000000e+00
-5.0000000000000003e-02  2.5000000000000000e-01  2.9999999999999999e-01
-5.0000000000000003e-02  2.7777777777777779e-01  1.4999999999999999e-01
-5.0000000000000003e-02  2.5000000000000000e-01  1.4999999999999999e-01
5.0000000000000003e-02  2.7777777777777779e-01  0.0000000000000000e+00
5.0000000000000003e-02  2.7777777777777779e-01  2.9999999999999999e-01
5.0000000000000003e-02  2.5000000000000000e-01  0.0000000000000000e+00
5.0000000000000003e-02  2.5000000000000000e-01  2.9999999999999999e-01
5.0000000000000003e-02  2.7777777777777779e-01  1.4999999999999999e-01
5.0000000000000003e-02  2.5000000000000000e-01  1.4999999999999999e-01
-5.0000000000000003e-02  3.3333333333333331e-01  0.0000000000000000e+00
-5.0000000000000003e-02  3.3333333333333331e-01  2.9999999999999999e-01
-5.0000000000000003e-02  3.0555555555555558e-01  0.0000000000000000e+00
-5.0000000000000003e-02  3.0555555555555558e-01  2.9999999999999999e-01
-5.0000000000000003e-02  3.3333333333333331e-01  1.4999999999999999e-01
-5.0000000000000003e-02  3.0555555555555558e-01  1.4999999999999999e-01
5.0000000000000003e-02  3.3333333333333331e-01  0.0000000000000000e+00
5.0000000000000003e-02  3.3333333333333331e-01  2.9999999999999999e-01
5.0000000000000003e-02  3.0555555555555558e-01  0.0000000000000000e+00
5.0000000000000003e-02  3.0555555555555558e-01  2.9999999999999999e-01
5.0000000000000003e-02  3.3333333333333331e-01  1.4999999999999999e-01
5.0000000000000003e-02  3.0555555555555558e-01  1.4999999999999999e-01
-5.0000000000000003e-02  3.8888888888888884e-01  0.0000000000000000e+00
-5.0000000000000003e-02  3.8888888888888884e-01  2.9999999999999999e-01
-5.0000000000000003e-02  3.6111111111111105e-01  0.0000000000000000e+00
-5.0000000000000003e-02  3.6111111111111105e-01  2.9999999999999999e-01
-5.0000000000000003e-02  3.8888888888888884e-01  1.4999999999999999e-01
-5.0000000000000003e-02  3.6111111111111105e-01  1.4999999999999999e-01
5.0000000000000003e-02  3.8888888888888884e-01  0.0000000000000000e+00
5.0000000000000003e-02  3.8888888888888884e-01  2.9999999999999999e-01
5.0000000000000003e-02  3.6111111111111105e-01  0.0000000000000000e+00
5.0000000000000003e-02  3.6111111111111105e-01  2.9999999999999999e-01
5.0000000000000003e-02  3.8888888888888884e-01  1.4999999999999999e-01
5.0000000000000003e-02  3.6111111111111105e-01  1.4999999999999999e-01
-5.0000000000000003e-02  4.4444444444444442e-01  0.0000000000000000e+00
-5.0000000000000003e-02  4.4444444444444442e-01  2.9999999999999999e-01
-5.0000000000000003e-02  4.1666666666666663e-01  0.0000000000000000e+00
-5.0000000000000003e-02  4.1666666666666663e-01  2.9999999999999999e-01
-5.0000000000000003e-02  4.4444444444444442e-01  1.4999999999999999e-01
-5.0000000000000003e-02  4.1666666666666663e-01  1.4999999999999999e-01
5.0000000000000003e-02  4.4444444444444442e-01  0.0000000000000000e+00
5.0000000000000003e-02  4.4444444444444442e-01  2.9999999999999999e-01
5.0000000000000003e-02  4.1666666666666663e-01  0.0000000000000000e+00
5.0000000000000003e-02  4.1666666666666663e-01  2.9999999999999999e-01
5.0000000000000003e-02  4.4444444444444442e-01  1.4999999999999999e-01
5.0000000000000003e-02  4.1666666666666663e-01  1.4999999999999999e-01
-5.0000000000000003e-02  5.0000000000000000e-01  0.0000000000000000e+00
-5.0000000000000003e-02  5.0000000000000000e-01  2.9999999999999999e-01
-5.0000000000000003e-02  4.7222222222222221e-01  0.0000000000000000e+00
-5.0000000000000003e-02  4.7222222222222221e-01  2.9999999999999999e-01
-5.0000000000000003e-02  5.0000000000000000e-01  1.4999999999999999e-01
-5.0000000000000003e-02  4.7222222222222221e-01  1.4999999999999999e-01
5.0000000000000003e-02  5.0000000000000000e-01  0.0000000000000000e+00
5.0000000000000003e-02  5.0000000000000000e-01  2.9999999999999999e-01
5.0000000000000003e-02  4.7222222222222221e-01  0.0000000000000000e+00
5.0000000000000003e-02  4.7222222222222221e-01  2.9999999999999999e-01
5.0000000000000003e-02  5.0000000000000000e-01  1.4999999999999999e-01
5.0000000000000003e-02  4.7222222222222221e-01  1.4999999999999999e-01
-5.0000000000000003e-02  5.5555555555555558e-01  0.0000000000000000e+00
-5.0000000000000003e-02  5.5555555555555558e-01  2.9999999999999999e-01
-5.0000000000000003e-02  5.2777777777777779e-01  0.0000000000000000e+00
-5.0000000000000003e-02  5.2777777777777779e-01  2.9999999999999999e-01
-5.0000000000000003e-02  5.5555555555555558e-01  1.4999999999999999e-01
-5.0000000000000003e-02  5.2777777777777779e-01  1.4999999999999999e-01
5.0000000000000003e-02  5.5555555555555558e-01  0.0000000000000000e+00
5.0000000000000003e-02  5.5555555555555558e-01  2.9999999999999999e-01
5.0000000000000003e-02  5.2777777777777779e-01  0.0000000000000000e+00
5.0000000000000003e-02  5.2777777777777779e-01  2.9999999999999999e-01
5.0000000000000003e-02  5.5555555555555558e-01  1.4999999999999999e-01
5.0000000000000003e-02  5.2777777777777779e-01  1.4999999999999999e-01
-5.0000000000000003e-02  6.1111111111111105e-01  0.0000000000000000e+00
-5.0000000000000003e-02  6.1111111111111105e-01  2.9999999999999999e-01
-5.0000000000000003e-02  5.8333333333333326e-01  0.0000000000000000e+00
-5.0000000000000003e-02  5.8333333333333326e-01  2.9999999999999999e-01
-5.0000000000000003e-02  6.1111111111111105e-01  1.4999999999999999e-01
-5.0000000000000003e-02  5.8333333333333326e-01  1.4999999999999999e-01
5.0000000000000003e-02  6.1111111111111105e-01  0.0000000000000000e+00
5.0000000000000003e-02  6.1111111111111105e-01  2.9999999999999999e-01
5.0000000000000003e-02  5.8333333333333326e-01  0.0000000000000000e+00
5.0000000000000003e-02  5.8333333333333326e-01  2.9999999999999999e-01
5.0000000000000003e-02  6.1111111111111105e-01  1.4999999999999999e-01
5.0000000000000003e-02  5.8333333333333326e-01  1.4999999999999999e-01
-5.0000000000000003e-02  6.6666666666666663e-01  0.0000000000000000e+00
-5.0000000000000003e-02  6.6666666666666663e-01  2.9999999999999999e-01
-5.0000000000000003e-02  6.3888888888888884e-01  0.0000000000000000e+00
-5.0000000000000003e-02  6.3888888888888884e-01  2.9999999999999999e-01
-5.0000000000000003e-02  6.6666666666666663e-01  1.4999999999999999e-01
-5.0000000000000003e-02  6.3888888888888884e-01  1.4999999999999999e-01
5.0000000000000003e-02  6.6666666666666663e-01  0.0000000000000000e+00
5.0000000000000003e-02  6.6666666666666663e-01  2.9999999999999999e-01
5.0000000000000003e-02  6.3888888888888884e-01  0.0000000000000000e+00
5.0000000000000003e-02  6.3888888888888884e-01  2.9999999999999999e-01
5.0000000000000003e-02  6.6666666666666663e-01  1.4999999999999999e-01
5.0000000000000003e-02  6.3888888888888884e-01  1.4999999999999999e-01
-5.0000000000000003e-02  7.2222222222222221e-01  0.0000000000000000e+00
-5.0000000000000003e-02  7.2222222222222221e-01  2.9999999999999999e-01
-5.0000000000000003e-02  6.9444444444444442e-01  0.0000000000000000e+00
-5.0000000000000003e-02  6.9444444444444442e-01  2.9999999999999999e-01
-5.0000000000000003e-02  7.2222222222222221e-01  1.4999999999999999e-01
-5.0000000000000003e-02  6.9444444444444442e-01  1.4999999999999999e-01
5.0000000000000003e-02  7.2222222222222221e-01  0.0000000000000000e+00
5.0000000000000003e-02  7.2222222222222221e-01  2.9999999999999999e-01
5.0000000000000003e-02  6.9444444444444442e-01  0.0000000000000000e+00
5.0000000000000003e-02  6.9444444444444442e-01  2.9999999999999999e-01
5.0000000000000003e-02  7.2222222222222221e-01  1.4999999999999999e-01
5.0000000000000003e-02  6.9444444444444442e-01  1.4999999999999999e-01
-5.0000000000000003e-02  7.7777777777777768e-01  0.0000000000000000e+00
-5.0000000000000003e-02  7.7777777777777768e-01  2.9999999999999999e-01
-5.0000000000000003e-02  7.5000000000000000e-01  0.0000000000000000e+00
-5.0000000000000003e-02  7.5000000000000000e-01  2.9999999999999999e-01
-5.0000000000000003e-02  7.7777777777777768e-01  1.4999999999999999e-01
-5.0000000000000003e-02  7.5000000000000000e-01  1.4999999999999999e-01
5.0000000000000003e-02  7.7777777777777768e-01  0.0000000000000000e+00
5.0000000000000003e-02  7.7777777777777768e-01  2.9999999999999999e-01
5.0000000000000003e-02  7.5000000000000000e-01  0.0000000000000000e+00
5.0000000000000003e-02  7.5000000000000000e-01  2.9999999999999999e-01
5.0000000000000003e-02  7.7777777777777768e-01  1.4999999999999999e-01
5.0000000000000003e-02  7.5000000000000000e-01  1.4999999999999999e-01
-5.0000000000000003e-02  8.3333333333333326e-01  0.0000000000000000e+00
-5.0000000000000003e-02  8.3333333333333326e-01  2.9999999999999999e-01
-5.0000000000000003e-02  8.0555555555555547e-01  0.0000000000000000e+00
-5.0000000000000003e-02  8.0555555555555547e-01  2.9999999999999999e-01
-5.0000000000000003e-02  8.3333333333333326e-01  1.4999999999999999e-01
-5.0000000000000003e-02  8.0555555555555536e-01  1.4999999999999999e-01
5.0000000000000003e-02  8.3333333333333326e-01  0.0000000000000000e+00
5.0000000000000003e-02  8.3333333333333326e-01  2.9999999999999999e-01
5.0000000000000003e-02  8.0555555555555547e-01  0.0000000000000000e+00
5.0000000000000003e-02  8.0555555555555547e-01  2.9999999999999999e-01
5.0000000000000003e-02  8.3333333333333326e-01  1.4999999999999999e-01
5.0000000000000003e-02  8.0555555555555536e-01  1.4999999999999999e-01
-5.0000000000000003e-02  8.8888888888888884e-01  0.0000000000000000e+00
-5.0000000000000003e-02  8.8888888888888884e-01  2.9999999999999999e-01
-5.0000000000000003e-02  8.6111111111111105e-01  0.0000000000000000e+00
-5.0000000000000003e-02  8.6111111111111105e-01  2.9999999999999999e-01
-5.0000000000000003e-02  8.8888888888888884e-01  1.4999999999999999e-01
-5.0000000000000003e-02  8.6111111111111105e-01  1.4999999999999999e-01
5.0000000000000003e-02  8.8888888888888884e-01  0.0000000000000000e+00
5.0000000000000003e-02  8.8888888888888884e-01  2.9999999999999999e-01
5.0000000000000003e-02  8.6111111111111105e-01  0.0000000000000000e+00
5.0000000000000003e-02  8.6111111111111105e-01  2.9999999999999999e-01
5.0000000000000003e-02  8.8888888888888884e-01  1.4999999999999999e-01
5.0000000000000003e-02  8.6111111111111105e-01  1.4999999999999999e-01
-5.0000000000000003e-02  9.4444444444444442e-01  0.0000000000000000e+00
-5.0000000000000003e-02  9.4444444444444442e-01  2.9999999999999999e-01
-5.0000000000000003e-02  9.1666666666666663e-01  0.0000000000000000e+00
-5.0000000000000003e-02  9.1666666666666663e-01  2.9999999999999999e-01
-5.0000000000000003e-02  9.4444444444444442e-01  1.4999999999999999e-01
-5.0000000000000003e-02  9.1666666666666674e-01  1.4999999999999999e-01
5.0000000000000003e-02  9.4444444444444442e-01  0.0000000000000000e+00
5.0000000000000003e-02  9.4444444444444442e-01  2.9999999999999999e-01
5.0000000000000003e-02  9.1666666666666663e-01  0.0000000000000000e+00
5.0000000000000003e-02  9.1666666666666663e-01  2.9999999999999999e-01
5.0000000000000003e-02  9.4444444444444442e-01  1.4999999999999999e-01
5.0000000000000003e-02  9.1666666666666674e-01  1.4999999999999999e-01
-5.0000000000000003e-02  1.0000000000000000e+00  0.0000000000000000e+00
-1.6666666666666670e-02  1.0000000000000000e+00  0.0000000000000000e+00
-5.0000000000000003e-02  1.0000000000000000e+00  2.9999999999999999e-01
-1.6666666666666670e-02  1.0000000000000000e+00  2.9999999999999999e-01
-5.0000000000000003e-02  9.7222222222222221e-01  0.0000000000000000e+00
-3.3333333333333340e-02  1.0000000000000000e+00  0.0000000000000000e+00
-5.0000000000000003e-02  9.7222222222222221e-01  2.9999999999999999e-01
-3.3333333333333340e-02  1.0000000000000000e+00  2.9999999999999999e-01
-5.0000000000000003e-02  1.0000000000000000e+00  1.4999999999999999e-01
-1.6666666666666670e-02  1.0000000000000000e+00  1.4999999999999999e-01
-5.0000000000000003e-02  9.7222222222222221e-01  1.4999999999999999e-01
-3.3333333333333340e-02  1.0000000000000000e+00  1.4999999999999999e-01
1.6666666666666663e-02  1.0000000000000000e+00  0.0000000000000000e+00
1.6666666666666663e-02  1.0000000000000000e+00  2.9999999999999999e-01
-3.4694469519536142e-18  1.0000000000000000e+00  0.0000000000000000e+00
-3.4694469519536142e-18  1.0000000000000000e+00  2.9999999999999999e-01
1.6666666666666663e-02  1.0000000000000000e+00  1.4999999999999999e-01
-3.4694469519536142e-18  1.0000000000000000e+00  1.4999999999999999e-01
5.0000000000000003e-02  1.0000000000000000e+00  0.0000000000000000e+00
5.0000000000000003e-02  1.0000000000000000e+00  2.9999999999999999e-01
5.0000000000000003e-02  9.7222222222222221e-01  0.0000000000000000e+00
3.3333333333333333e-02  1.0000000000000000e+00  0.0000000000000000e+00
5.0000000000000003e-02  9.7222222222222221e-01  2.9999999999999999e-01
3.3333333333333333e-02  1.0000000000000000e+00  2.9999999999999999e-01
5.0000000000000003e-02  1.0000000000000000e+00  1.4999999999999999e-01
5.0000000000000003e-02  9.7222222222222221e-01  1.4999999999999999e-01
3.3333333333333333e-02  1.0000000000000000e+00  1.4999999999999999e-01

CELLS 0 0


CELL_TYPES 0


POINT_DATA 237

VECTORS VertexNormals float

0.0000000000000000e+00 0.0000000000000000e+00 0.0000000000000000e+00 
0.0000000000000000e+00 0.0000000000000000e+00 0.0000000000000000e+00 
0.0000000000000000e+00 0.0000000000000000e+00 0.0000000000000000e+00 
0.0000000000000000e+00 0.0000000000000000e+00 0.0000000000000000e+00 
0.0000000000000000e+00 0.0000000000000000e+00 0.0000000000000000e+00 
0.0000000000000000e+00 0.0000000000000000e+00 0.0000000000000000e+00 
0.0000000000000000e+00 0.0000000000000000e+00 0.0000000000000000e+00 
0.0000000000000000e+00 0.0000000000000000e+00 0.0000000000000000e+00 
0.0000000000000000e+00 0.0000000000000000e+00 0.0000000000000000e+00 
0.0000000000000000e+00 0.0000000000000000e+00 0.0000000000000000e+00 
0.0000000000000000e+00 0.0000000000000000e+00 0.0000000000000000e+00 
0.0000000000000000e+00 0.0000000000000000e+00 0.0000000000000000e+00 
0.0000000000000000e+00 0.0000000000000000e+00 0.0000000000000000e+00 
0.0000000000000000e+00 0.0000000000000000e+00 0.0000000000000000e+00 
0.0000000000000000e+00 0.0000000000000000e+00 0.0000000000000000e+00 
0.0000000000000000e+00 0.0000000000000000e+00 0.0000000000000000e+00 
0.0000000000000000e+00 0.0000000000000000e+00 0.0000000000000000e+00 
0.0000000000000000e+00 0.0000000000000000e+00 0.0000000000000000e+00 
0.0000000000000000e+00 0.0000000000000000e+00 0.0000000000000000e+00 
0.0000000000000000e+00 0.0000000000000000e+00 0.0000000000000000e+00 
0.0000000000000000e+00 0.0000000000000000e+00 0.0000000000000000e+00 
0.0000000000000000e+00 0.0000000000000000e+00 0.0000000000000000e+00 
0.0000000000000000e+00 0.0000000000000000e+00 0.0000000000000000e+00 
0.0000000000000000e+00 0.0000000000000000e+00 0.0000000000000000e+00 
0.0000000000000000e+00 0.0000000000000000e+00 0.0000000000000000e+00 
0.0000000000000000e+00 0.0000000000000000e+00 0.0000000000000000e+00 
0.0000000000000000e+00 0.0000000000000000e+00 0.0000000000000000e+00 
0.0000000000000000e+00 0.0000000000000000e+00 0.0000000000000000e+00 
0.0000000000000000e+00 0.0000000000000000e+00 0.0000000000000000e+00 
0.0000000000000000e+00 0.0000000000000000e+00 0.0000000000000000e+00 
0.0000000000000000e+00 0.0000000000000000e+00 0.0000000000000000e+00 
0.0000000000000000e+00 0.0000000000000000e+00 0.0000000000000000e+00 
0.0000000000000000e+00 0.0000000000000000e+00 0.0000000000000000e+00 
0.0000000000000000e+00 0.0000000000000000e+00 0.0000000000000000e+00 
0.0000000000000000e+00 0.0000000000000000e+00 0.0000000000000000e+00 
0.0000000000000000e+00 0.0000000000000000e+00 0.0000000000000000e+00 
0.0000000000000000e+00 0.0000000000000000e+00 0.0000000000000000e+00 
0.0000000000000000e+00 0.0000000000000000e+00 0.0000000000000000e+00 
0.0000000000000000e+00 0.0000000000000000e+00 0.0000000000000000e+00 
0.0000000000000000e+00 0.0000000000000000e+00 0.0000000000000000e+00 
0.0000000000000000e+00 0.0000000000000000e+00 0.0000000000000000e+00 
0.0000000000000000e+00 0.0000000000000000e+00 0.0000000000000000e+00 
0.0000000000000000e+00 0.0000000000000000e+00 0.0000000000000000e+00 
0.0000000000000000e+00 0.0000000000000000e+00 0.0000000000000000e+00 
0.0000000000000000e+00 0.0000000000000000e+00 0.0000000000000000e+00 
0.0000000000000000e+00 0.0000000000000000e+00 0.0000000000000000e+00 
0.0000000000000000e+00 0.0000000000000000e+00 0.0000000000000000e+00 
0.0000000000000000e+00 0.0000000000000000e+00 0.0000000000000000e+00 
0.0000000000000000e+00 0.0000000000000000e+00 0.0000000000000000e+00 
0.0000000000000000e+00 0.0000000000000000e+00 0.0000000000000000e+00 
0.0000000000000000e+00 0.0000000000000000e+00 0.0000000000000000e+00 
0.0000000000000000e+00 0.0000000000000000e+00 0.0000000000000000e+00 
0.0000000000000000e+00 0.0000000000000000e+00 0.0000000000000000e+00 
0.0000000000000000e+00 0.0000000000000000e+00 0.0000000000000000e+00 
0.0000000000000000e+00 0.0000000000000000e+00 0.0000000000000000e+00 
0.0000000000000000e+00 0.0000000000000000e+00 0.0000000000000000e+00 
0.0000000000000000e+00 0.0000000000000000e+00 0.0000000000000000e+00 
0.0000000000000000e+00 0.0000000000000000e+00 0.0000000000000000e+00 
0.0000000000000000e+00 0.0000000000000000e+00 0.0000000000000000e+00 
0.0000000000000000e+00 0.0000000000000000e+00 0.0000000000000000e+00 
0.0000000000000000e+00 0.0000000000000000e+00 0.0000000000000000e+00 
0.0000000000000000e+00 0.0000000000000000e+00 0.0000000000000000e+00 
0.0000000000000000e+00 0.0000000000000000e+00 0.0000000000000000e+00 
0.0000000000000000e+00 0.0000000000000000e+00 0.0000000000000000e+00 
0.0000000000000000e+00 0.0000000000000000e+00 0.0000000000000000e+00 
0.0000000000000000e+00 0.0000000000000000e+00 0.0000000000000000e+00 
0.0000000000000000e+00 0.0000000000000000e+00 0.0000000000000000e+00 
0.0000000000000000e+00 0.0000000000000000e+00 0.0000000000000000e+00 
0.0000000000000000e+00 0.0000000000000000e+00 0.0000000000000000e+00 
0.0000000000000000e+00 0.0000000000000000e+00 0.0000000000000000e+00 
0.0000000000000000e+00 0.0000000000000000e+00 0.0000000000000000e+00 
0.0000000000000000e+00 0.0000000000000000e+00 0.0000000000000000e+00 
0.0000000000000000e+00 0.0000000000000000e+00 0.0000000000000000e+00 
0.0000000000000000e+00 0.0000000000000000e+00 0.0000000000000000e+00 
0.0000000000000000e+00 0.0000000000000000e+00 0.0000000000000000e+00 
0.0000000000000000e+00 0.0000000000000000e+00 0.0000000000000000e+00 
0.0000000000000000e+00 0.0000000000000000e+00 0.0000000000000000e+00 
0.0000000000000000e+00 0.0000000000000000e+00 0.0000000000000000e+00 
0.0000000000000000e+00 0.0000000000000000e+00 0.0000000000000000e+00 
0.0000000000000000e+00 0.0000000000000000e+00 0.0000000000000000e+00 
0.0000000000000000e+00 0.0000000000000000e+00 0.0000000000000000e+00 
0.0000000000000000e+00 0.0000000000000000e+00 0.0000000000000000e+00 
0.0000000000000000e+00 0.0000000000000000e+00 0.0000000000000000e+00 
0.0000000000000000e+00 0.0000000000000000e+00 0.0000000000000000e+00 
0.0000000000000000e+00 0.0000000000000000e+00 0.0000000000000000e+00 
0.0000000000000000e+00 0.0000000000000000e+00 0.0000000000000000e+00 
0.0000000000000000e+00 0.0000000000000000e+00 0.0000000000000000e+00 
0.0000000000000000e+00 0.0000000000000000e+00 0.0000000000000000e+00 
0.0000000000000000e+00 0.0000000000000000e+00 0.0000000000000000e+00 
0.0000000000000000e+00 0.0000000000000000e+00 0.0000000000000000e+00 
0.0000000000000000e+00 0.0000000000000000e+00 0.0000000000000000e+00 
0.0000000000000000e+00 0.0000000000000000e+00 0.0000000000000000e+00 
0.0000000000000000e+00 0.0000000000000000e+00 0.0000000000000000e+00 
0.0000000000000000e+00 0.0000000000000000e+00 0.0000000000000000e+00 
0.0000000000000000e+00 0.0000000000000000e+00 0.0000000000000000e+00 
0.0000000000000000e+00 0.0000000000000000e+00 0.0000000000000000e+00 
0.0000000000000000e+00 0.0000000000000000e+00 0.0000000000000000e+00 
0.0000000000000000e+00 0.0000000000000000e+00 0.0000000000000000e+00 
0.0000000000000000e+00 0.0000000000000000e+00 0.0000000000000000e+00 
0.0000000000000000e+00 0.0000000000000000e+00 0.0000000000000000e+00 
0.0000000000000000e+00 0.0000000000000000e+00 0.0000000000000000e+00 
0.0000000000000000e+00 0.0000000000000000e+00 0.0000000000000000e+00 
0.0000000000000000e+00 0.0000000000000000e+00 0.0000000000000000e+00 
0.0000000000000000e+00 0.0000000000000000e+00 0.0000000000000000e+00 
0.0000000000000000e+00 0.0000000000000000e+00 0.0000000000000000e+00 
0.0000000000000000e+00 0.0000000000000000e+00 0.0000000000000000e+00 
0.0000000000000000e+00 0.0000000000000000e+00 0.0000000000000000e+00 
0.0000000000000000e+00 0.0000000000000000e+00 0.0000000000000000e+00 
0.0000000000000000e+00 0.0000000000000000e+00 0.0000000000000000e+00 
0.0000000000000000e+00 0.0000000000000000e+00 0.0000000000000000e+00 
0.0000000000000000e+00 0.0000000000000000e+00 0.0000000000000000e+00 
0.0000000000000000e+00 0.0000000000000000e+00 0.0000000000000000e+00 
0.0000000000000000e+00 0.0000000000000000e+00 0.0000000000000000e+00 
0.0000000000000000e+00 0.0000000000000000e+00 0.0000000000000000e+00 
0.0000000000000000e+00 0.0000000000000000e+00 0.0000000000000000e+00 
0.0000000000000000e+00 0.0000000000000000e+00 0.0000000000000000e+00 
0.0000000000000000e+00 0.0000000000000000e+00 0.0000000000000000e+00 
0.0000000000000000e+00 0.0000000000000000e+00 0.0000000000000000e+00 
0.0000000000000000e+00 0.0000000000000000e+00 0.0000000000000000e+00 
0.0000000000000000e+00 0.0000000000000000e+00 0.0000000000000000e+00 
0.0000000000000000e+00 0.0000000000000000e+00 0.0000000000000000e+00 
0.0000000000000000e+00 0.0000000000000000e+00 0.0000000000000000e+00 
0.0000000000000000e+00 0.0000000000000000e+00 0.0000000000000000e+00 
0.0000000000000000e+00 0.0000000000000000e+00 0.0000000000000000e+00 
0.0000000000000000e+00 0.0000000000000000e+00 0.0000000000000000e+00 
0.0000000000000000e+00 0.0000000000000000e+00 0.0000000000000000e+00 
0.0000000000000000e+00 0.0000000000000000e+00 0.0000000000000000e+00 
0.0000000000000000e+00 0.0000000000000000e+00 0.0000000000000000e+00 
0.0000000000000000e+00 0.0000000000000000e+00 0.0000000000000000e+00 
0.0000000000000000e+00 0.0000000000000000e+00 0.0000000000000000e+00 
0.0000000000000000e+00 0.0000000000000000e+00 0.0000000000000000e+00 
0.0000000000000000e+00 0.0000000000000000e+00 0.0000000000000000e+00 
0.0000000000000000e+00 0.0000000000000000e+00 0.0000000000000000e+00 
0.0000000000000000e+00 0.0000000000000000e+00 0.0000000000000000e+00 
0.0000000000000000e+00 0.0000000000000000e+00 0.0000000000000000e+00 
0.0000000000000000e+00 0.0000000000000000e+00 0.0000000000000000e+00 
0.0000000000000000e+00 0.0000000000000000e+00 0.0000000000000000e+00 
0.0000000000000000e+00 0.0000000000000000e+00 0.0000000000000000e+00 
0.0000000000000000e+00 0.0000000000000000e+00 0.0000000000000000e+00 
0.0000000000000000e+00 0.0000000000000000e+00 0.0000000000000000e+00 
0.0000000000000000e+00 0.0000000000000000e+00 0.0000000000000000e+00 
0.0000000000000000e+00 0.0000000000000000e+00 0.0000000000000000e+00 
0.0000000000000000e+00 0.0000000000000000e+00 0.0000000000000000e+00 
0.0000000000000000e+00 0.0000000000000000e+00 0.0000000000000000e+00 
0.0000000000000000e+00 0.0000000000000000e+00 0.0000000000000000e+00 
0.0000000000000000e+00 0.0000000000000000e+00 0.0000000000000000e+00 
0.0000000000000000e+00 0.0000000000000000e+00 0.0000000000000000e+00 
0.0000000000000000e+00 0.0000000000000000e+00 0.0000000000000000e+00 
0.0000000000000000e+00 0.0000000000000000e+00 0.0000000000000000e+00 
0.0000000000000000e+00 0.0000000000000000e+00 0.0000000000000000e+00 
0.0000000000000000e+00 0.0000000000000000e+00 0.0000000000000000e+00 
0.0000000000000000e+00 0.0000000000000000e+00 0.0000000000000000e+00 
0.0000000000000000e+00 0.0000000000000000e+00 0.0000000000000000e+00 
0.0000000000000000e+00 0.0000000000000000e+00 0.0000000000000000e+00 
0.0000000000000000e+00 0.0000000000000000e+00 0.0000000000000000e+00 
0.0000000000000000e+00 0.0000000000000000e+00 0.0000000000000000e+00 
0.0000000000000000e+00 0.0000000000000000e+00 0.0000000000000000e+00 
0.0000000000000000e+00 0.0000000000000000e+00 0.0000000000000000e+00 
0.0000000000000000e+00 0.0000000000000000e+00 0.0000000000000000e+00 
0.0000000000000000e+00 0.0000000000000000e+00 0.0000000000000000e+00 
0.0000000000000000e+00 0.0000000000000000e+00 0.0000000000000000e+00 
0.0000000000000000e+00 0.0000000000000000e+00 0.0000000000000000e+00 
0.0000000000000000e+00 0.0000000000000000e+00 0.0000000000000000e+00 
0.0000000000000000e+00 0.0000000000000000e+00 0.0000000000000000e+00 
0.0000000000000000e+00 0.0000000000000000e+00 0.0000000000000000e+00 
0.0000000000000000e+00 0.0000000000000000e+00 0.0000000000000000e+00 
0.0000000000000000e+00 0.0000000000000000e+00 0.0000000000000000e+00 
0.0000000000000000e+00 0.0000000000000000e+00 0.0000000000000000e+00 
0.0000000000000000e+00 0.0000000000000000e+00 0.0000000000000000e+00 
0.0000000000000000e+00 0.0000000000000000e+00 0.0000000000000000e+00 
0.0000000000000000e+00 0.0000000000000000e+00 0.0000000000000000e+00 
0.0000000000000000e+00 0.0000000000000000e+00 0.0000000000000000e+00 
0.0000000000000000e+00 0.0000000000000000e+00 0.0000000000000000e+00 
0.0000000000000000e+00 0.0000000000000000e+00 0.0000000000000000e+00 
0.0000000000000000e+00 0.0000000000000000e+00 0.0000000000000000e+00 
0.0000000000000000e+00 0.0000000000000000e+00 0.0000000000000000e+00 
0.0000000000000000e+00 0.0000000000000000e+00 0.0000000000000000e+00 
0.0000000000000000e+00 0.0000000000000000e+00 0.0000000000000000e+00 
0.0000000000000000e+00 0.0000000000000000e+00 0.0000000000000000e+00 
0.0000000000000000e+00 0.0000000000000000e+00 0.0000000000000000e+00 
0.0000000000000000e+00 0.0000000000000000e+00 0.0000000000000000e+00 
0.0000000000000000e+00 0.0000000000000000e+00 0.0000000000000000e+00 
0.0000000000000000e+00 0.0000000000000000e+00 0.0000000000000000e+00 
0.0000000000000000e+00 0.0000000000000000e+00 0.0000000000000000e+00 
0.0000000000000000e+00 0.0000000000000000e+00 0.0000000000000000e+00 
0.0000000000000000e+00 0.0000000000000000e+00 0.0000000000000000e+00 
0.0000000000000000e+00 0.0000000000000000e+00 0.0000000000000000e+00 
0.0000000000000000e+00 0.0000000000000000e+00 0.0000000000000000e+00 
0.0000000000000000e+00 0.0000000000000000e+00 0.0000000000000000e+00 
0.0000000000000000e+00 0.0000000000000000e+00 0.0000000000000000e+00 
0.0000000000000000e+00 0.0000000000000000e+00 0.0000000000000000e+00 
0.0000000000000000e+00 0.0000000000000000e+00 0.0000000000000000e+00 
0.0000000000000000e+00 0.0000000000000000e+00 0.0000000000000000e+00 
0.0000000000000000e+00 0.0000000000000000e+00 0.0000000000000000e+00 
0.0000000000000000e+00 0.0000000000000000e+00 0.0000000000000000e+00 
0.0000000000000000e+00 0.0000000000000000e+00 0.0000000000000000e+00 
0.0000000000000000e+00 0.0000000000000000e+00 0.0000000000000000e+00 
0.0000000000000000e+00 0.0000000000000000e+00 0.0000000000000000e+00 
0.0000000000000000e+00 0.0000000000000000e+00 0.0000000000000000e+00 
0.0000000000000000e+00 0.0000000000000000e+00 0.0000000000000000e+00 
0.0000000000000000e+00 0.0000000000000000e+00 0.0000000000000000e+00 
0.0000000000000000e+00 0.0000000000000000e+00 0.0000000000000000e+00 
0.0000000000000000e+00 0.0000000000000000e+00 0.0000000000000000e+00 
0.0000000000000000e+00 0.0000000000000000e+00 0.0000000000000000e+00 
0.0000000000000000e+00 0.0000000000000000e+00 0.0000000000000000e+00 
0.0000000000000000e+00 0.0000000000000000e+00 0.0000000000000000e+00 
0.0000000000000000e+00 0.0000000000000000e+00 0.0000000000000000e+00 
0.0000000000000000e+00 0.0000000000000000e+00 0.0000000000000000e+00 
0.0000000000000000e+00 0.0000000000000000e+00 0.0000000000000000e+00 
0.0000000000000000e+00 0.0000000000000000e+00 0.0000000000000000e+00 
0.0000000000000000e+00 0.0000000000000000e+00 0.0000000000000000e+00 
0.0000000000000000e+00 0.0000000000000000e+00 0.0000000000000000e+00 
0.0000000000000000e+00 0.0000000000000000e+00 0.0000000000000000e+00 
0.0000000000000000e+00 0.0000000000000000e+00 0.0000000000000000e+00 
0.0000000000000000e+00 0.0000000000000000e+00 0.0000000000000000e+00 
0.0000000000000000e+00 0.0000000000000000e+00 0.0000000000000000e+00 
0.0000000000000000e+00 0.0000000000000000e+00 0.0000000000000000e+00 
0.0000000000000000e+00 0.0000000000000000e+00 0.0000000000000000e+00 
0.0000000000000000e+00 0.0000000000000000e+00 0.0000000000000000e+00 
0.0000000000000000e+00 0.0000000000000000e+00 0.0000000000000000e+00 
0.0000000000000000e+00 0.0000000000000000e+00 0.0000000000000000e+00 
0.0000000000000000e+00 0.0000000000000000e+00 0.0000000000000000e+00 
0.0000000000000000e+00 0.0000000000000000e+00 0.0000000000000000e+00 
0.0000000000000000e+00 0.0000000000000000e+00 0.0000000000000000e+00 
0.0000000000000000e+00 0.0000000000000000e+00 0.0000000000000000e+00 
0.0000000000000000e+00 0.0000000000000000e+00 0.0000000000000000e+00 
0.0000000000000000e+00 0.0000000000000000e+00 0.0000000000000000e+00 
0.0000000000000000e+00 0.0000000000000000e+00 0.0000000000000000e+00 
0.0000000000000000e+00 0.0000000000000000e+00 0.0000000000000000e+00 
0.0000000000000000e+00 0.0000000000000000e+00 0.0000000000000000e+00 
0.0000000000000000e+00 0.0000000000000000e+00 0.0000000000000000e+00 
0.0000000000000000e+00 0.0000000000000000e+00 0.0000000000000000e+00 
0.0000000000000000e+00 0.0000000000000000e+00 0.0000000000000000e+00 
0.0000000000000000e+00 0.0000000000000000e+00 0.0000000000000000e+00 
0.0000000000000000e+00 0.0000000000000000e+00 0.0000000000000000e+00 
0.0000000000000000e+00 0.0000000000000000e+00 0.0000000000000000e+00 
0.0000000000000000e+00 0.0000000000000000e+00 0.0000000000000000e+00 

VECTORS Displacement float
0.0000000000000000e+00 0.0000000000000000e+00 0.0000000000000000e+00 
1.1194827444088353e-03 1.1715024404797478e-03 0.0000000000000000e+00 
0.0000000000000000e+00 0.0000000000000000e+00 0.0000000000000000e+00 
1.1194847259007727e-03 1.1715026481226719e-03 0.0000000000000000e+00 
5.2324354619640435e-04 6.5207069021856528e-04 0.0000000000000000e+00 
5.2324684174309092e-04 6.5207180363319672e-04 0.0000000000000000e+00 
0.0000000000000000e+00 0.0000000000000000e+00 0.0000000000000000e+00 
1.1194810163211665e-03 1.1715021248307144e-03 -2.7123194242221935e-10 
5.2324231011632838e-04 6.5207057454559853e-04 -4.2098553332197197e-10 
0.0000000000000000e+00 0.0000000000000000e+00 0.0000000000000000e+00 
9.7743141289063744e-04 -9.1569467398755228e-04 0.0000000000000000e+00 
0.0000000000000000e+00 0.0000000000000000e+00 0.0000000000000000e+00 
9.7743413666925871e-04 -9.1569324196045816e-04 0.0000000000000000e+00 
3.6288002653448782e-04 -4.9067810193938156e-04 0.0000000000000000e+00 
3.6288429013880952e-04 -4.9067877009715275e-04 0.0000000000000000e+00 
0.0000000000000000e+00 0.0000000000000000e+00 0.0000000000000000e+00 
9.7742835485259113e-04 -9.1569386614158237e-04 -6.9348829326270462e-10 
3.6287818551172324e-04 -4.9067793630763789e-04 -4.2568220559461912e-10 
2.9254293491679448e-03 1.9745782450250370e-03 0.0000000000000000e+00 
2.9254249861626865e-03 1.9745732032464538e-03 0.0000000000000000e+00 
1.9360234095873738e-03 1.6166315799333681e-03 0.0000000000000000e+00 
1.9360254929762369e-03 1.6166273436966842e-03 0.0000000000000000e+00 
2.9254249544332376e-03 1.9745774471469253e-03 -8.6190923720561380e-10 
1.9360203455081439e-03 1.6166294490601346e-03 -7.2026317064377431e-10 
2.8113354500055301e-03 -1.4045388606918798e-03 0.0000000000000000e+00 
2.8113306041302145e-03 -1.4045390744315005e-03 0.0000000000000000e+00 
1.8487503946260160e-03 -1.2080161561256293e-03 0.0000000000000000e+00 
1.8487466952516406e-03 -1.2080141093755484e-03 0.0000000000000000e+00 
2.8113292591820820e-03 -1.4045408369467518e-03 -2.5911681830710196e-10 
1.8487442394829932e-03 -1.2080141249665693e-03 8.5945344563613545e-11 
5.2459885597748428e-03 2.4338944517375326e-03 0.0000000000000000e+00 
5.2459814472804222e-03 2.4338948602697511e-03 0.0000000000000000e+00 
4.0347289559206356e-03 2.2346291973872542e-03 0.0000000000000000e+00 
4.0347220605154444e-03 2.2346256100158638e-03 0.0000000000000000e+00 
5.2459876716967804e-03 2.4338960350711357e-03 -9.0678638612972260e-10 
4.0347249637682301e-03 2.2346286964144749e-03 -1.2408508335339369e-09 
5.1263330449166792e-03 -1.6432219868809949e-03 0.0000000000000000e+00 
5.1263284691321562e-03 -1.6432253323864644e-03 0.0000000000000000e+00 
3.8900384945534084e-03 -1.5515768713826508e-03 0.0000000000000000e+00 
3.8900340201771444e-03 -1.5515768874265535e-03 0.0000000000000000e+00 
5.1263299224945198e-03 -1.6432242715514001e-03 3.4007036553133948e-10 
3.8900362189109930e-03 -1.5515780820008745e-03 6.7924522978370112e-10 
7.7052071025833285e-03 2.5599342294894446e-03 0.0000000000000000e+00 
7.7052093842215810e-03 2.5599341252023730e-03 0.0000000000000000e+00 
6.5092040771189607e-03 2.5298549500728613e-03 0.0000000000000000e+00 
6.5092037739049799e-03 2.5298568545425570e-03 0.0000000000000000e+00 
7.7052054796078323e-03 2.5599325867817105e-03 1.9998765545001830e-10 
6.5092064168236910e-03 2.5298529152575694e-03 -5.7135140997372778e-10 
7.6369160480283371e-03 -1.5561899393244883e-03 0.0000000000000000e+00 
7.6369157327323845e-03 -1.5561949757303454e-03 0.0000000000000000e+00 
6.4225009296605962e-03 -1.6233563146465534e-03 0.0000000000000000e+00 
6.4224982396075408e-03 -1.6233598959166534e-03 0.0000000000000000e+00 
7.6369162757905888e-03 -1.5561932338863170e-03 2.9643288033592837e-11 
6.4224989360503124e-03 -1.6233588085803681e-03 7.5711573430185635e-10 
1.0067784399270696e-02 2.5696260347481234e-03 0.0000000000000000e+00 
1.0067787032999782e-02 2.5696248062496777e-03 0.0000000000000000e+00 
8.8681072181494500e-03 2.5852287458306778e-03 0.0000000000000000e+00 
8.8681118076505451e-03 2.5852277934774767e-03 0.0000000000000000e+00 
1.0067783571057993e-02 2.5696257501226344e-03 1.0225905776190084e-09 
8.8681087062897103e-03 2.5852271942790679e-03 7.6437181890146202e-10 
1.0013363395417547e-02 -1.4324636810399524e-03 0.0000000000000000e+00 
1.0013367925350677e-02 -1.4324662605939825e-03 0.0000000000000000e+00 
8.8090362828353985e-03 -1.5074816244271898e-03 0.0000000000000000e+00 
8.8090401211890247e-03 -1.5074843844257936e-03 0.0000000000000000e+00 
1.0013362971859219e-02 -1.4324653748216283e-03 -5.9133267725721044e-10 
8.8090374609186631e-03 -1.5074829963735174e-03 -2.3645600586209623e-11 
1.2251399506660630e-02 2.2446680857859083e-03 0.0000000000000000e+00 
1.2251404891208944e-02 2.2446671368623900e-03 0.0000000000000000e+00 
1.1238110383748732e-02 2.4440536414116216e-03 0.0000000000000000e+00 
1.1238114201958735e-02 2.4440528850991150e-03 0.0000000000000000e+00 
1.2251401796056195e-02 2.2446682192749402e-03 1.2106705449218128e-09 
1.1238112861919928e-02 2.4440533513851704e-03 1.0271886178855252e-09 
1.2192573729204452e-02 -1.0045305977043561e-03 0.0000000000000000e+00 
1.2192577585136113e-02 -1.0045336843815720e-03 0.0000000000000000e+00 
1.1182408324575337e-02 -1.2548111760810271e-03 0.0000000000000000e+00 
1.1182411123589973e-02 -1.2548129435294513e-03 0.0000000000000000e+00 
1.2192573449937192e-02 -1.0045308481334738e-03 -3.8883364618130955e-10 
1.1182409656852313e-02 -1.2548107048353972e-03 4.5155388816944849e-11 
1.3756553626282817e-02 1.8668860841388423e-03 0.0000000000000000e+00 
1.3756557313967886e-02 1.8668815079868689e-03 0.0000000000000000e+00 
1.3073147536187123e-02 2.0384605713423308e-03 0.0000000000000000e+00 
1.3073155945138852e-02 2.0384576587581813e-03 0.0000000000000000e+00 
1.3756554884364010e-02 1.8668833086409513e-03 7.4278745522387779e-10 
1.3073151992096459e-02 2.0384581757267491e-03 1.2003914175568672e-09 
1.3688501008225683e-02 -5.1502005786671515e-04 0.0000000000000000e+00 
1.3688503783182837e-02 -5.1501910906174078e-04 0.0000000000000000e+00 
1.3009684184068140e-02 -7.4469800792165120e-04 0.0000000000000000e+00 
1.3009689992671096e-02 -7.4469802155398301e-04 0.0000000000000000e+00 
1.3688501129974912e-02 -5.1502031096915292e-04 -3.7893747359129457e-10 
1.3009685958494336e-02 -7.4469792027767319e-04 -2.1346067129518554e-10 
1.4942885751094329e-02 1.5635860263153083e-03 0.0000000000000000e+00 
1.4942888008827695e-02 1.5635849531300517e-03 0.0000000000000000e+00 
1.4374888566786944e-02 1.7274989579713932e-03 0.0000000000000000e+00 
1.4374891581693607e-02 1.7274963381889276e-03 0.0000000000000000e+00 
1.4942886162754371e-02 1.5635861923929794e-03 3.0173869930919793e-10 
1.4374889657532565e-02 1.7274965394055333e-03 4.8086577991730451e-10 
1.4867584515984841e-02 -8.3725834006203659e-05 0.0000000000000000e+00 
1.4867586591815786e-02 -8.3727029398826059e-05 0.0000000000000000e+00 
1.4302855484450080e-02 -3.1310465868804977e-04 0.0000000000000000e+00 
1.4302856977040063e-02 -3.1310375780864788e-04 0.0000000000000000e+00 
1.4867584540402278e-02 -8.3728387914144690e-05 -4.2523349455524287e-10 
1.4302855045431667e-02 -3.1310533474439994e-04 7.1400836733250504e-11 
1.5637478941157825e-02 1.0294541383151896e-03 0.0000000000000000e+00 
1.5637481217855881e-02 1.0294512655726329e-03 0.0000000000000000e+00 
1.5393589092760809e-02 1.3231272597108298e-03 0.0000000000000000e+00 
1.5393593903013016e-02 1.3231253121109815e-03 0.0000000000000000e+00 
1.5637478625261273e-02 1.0294524663212634e-03 9.7092019316972438e-11 
1.5393592335628131e-02 1.3231260649458035e-03 3.8866975077732756e-10 
1.5562674241035288e-02 5.7955447138223850e-04 0.0000000000000000e+00 
1.5562676684411306e-02 5.7955518771050387e-04 0.0000000000000000e+00 
1.5317438431396924e-02 2.2259607951577345e-04 0.0000000000000000e+00 
1.5317442290402220e-02 2.2259673194858007e-04 0.0000000000000000e+00 
1.5562674697965240e-02 5.7955507403228013e-04 -6.0767707184459446e-10 
1.5317441761471318e-02 2.2259582860916053e-04 -2.1976687137882134e-10 
1.5382217606195965e-02 4.6327904742808520e-04 0.0000000000000000e+00 
1.5382218654005186e-02 4.6327922267382348e-04 0.0000000000000000e+00 
1.5630248116075808e-02 7.2316065097112275e-04 0.0000000000000000e+00 
1.5630249810427380e-02 7.2315939033947159e-04 0.0000000000000000e+00 
1.5382215382181992e-02 4.6327983568019804e-04 2.0487558000055858e-10 
1.5630246519941764e-02 7.2315938430008949e-04 1.4719573835050701e-10 
1.5320754332755319e-02 1.2530583250842582e-03 0.0000000000000000e+00 
1.5320755965350248e-02 1.2530583500669113e-03 0.0000000000000000e+00 
1.5560819387834612e-02 9.4343846938811649e-04 0.0000000000000000e+00 
1.5560820619987831e-02 9.4343956809361286e-04 0.0000000000000000e+00 
1.5320753615772809e-02 1.2530574495502799e-03 -6.5803128401086382e-10 
1.5560819255514153e-02 9.4343874551856897e-04 -3.5638763102949093e-10 
1.4496709175521622e-02 2.4662253500952426e-04 0.0000000000000000e+00 
1.4496713529534681e-02 2.4662344670378704e-04 0.0000000000000000e+00 
1.4973408914286963e-02 3.0691240777649839e-04 0.0000000000000000e+00 
1.4973413038831436e-02 3.0691359521531857e-04 0.0000000000000000e+00 
1.4496710677048181e-02 2.4662272572432639e-04 3.3941971556161606e-10 
1.4973410545053956e-02 3.0691258106397054e-04 3.7118282658825360e-10 
1.4453090838705378e-02 1.5457726027157353e-03 0.0000000000000000e+00 
1.4453094762915973e-02 1.5457745674803132e-03 0.0000000000000000e+00 
1.4921360843727168e-02 1.4508859670388488e-03 0.0000000000000000e+00 
1.4921364563862314e-02 1.4508874095890459e-03 0.0000000000000000e+00 
1.4453093636530003e-02 1.5457735131332191e-03 -6.2413586748277368e-10 
1.4921362621366027e-02 1.4508858355221739e-03 -3.8161363932483318e-10 
1.3641612153739591e-02 3.7731602851483810e-04 0.0000000000000000e+00 
1.3641612271400243e-02 3.7731572388403727e-04 0.0000000000000000e+00 
1.4033358253344449e-02 2.8328675198734804e-04 0.0000000000000000e+00 
1.4033362797373983e-02 2.8328659934700708e-04 0.0000000000000000e+00 
1.3641611277352778e-02 3.7731495827400899e-04 6.8686889949633501e-11 
1.4033360777173787e-02 2.8328548759490546e-04 4.2033660975927887e-10 
1.3598725445572142e-02 1.4779585591170050e-03 0.0000000000000000e+00 
1.3598725663936575e-02 1.4779613798846772e-03 0.0000000000000000e+00 
1.3992922634179242e-02 1.5404963997125672e-03 0.0000000000000000e+00 
1.3992926341110958e-02 1.5405006802002629e-03 0.0000000000000000e+00 
1.3598723978672369e-02 1.4779601829293569e-03 -5.5065956554587961e-11 
1.3992924982256844e-02 1.5404995824227757e-03 -2.7547738136399883e-11 
1.3148500914750054e-02 6.1927593531752089e-04 0.0000000000000000e+00 
1.3148503139843257e-02 6.1927818169079816e-04 0.0000000000000000e+00 
1.3345194655443808e-02 5.0122477435628958e-04 0.0000000000000000e+00 
1.3345194955282674e-02 5.0122621206973516e-04 0.0000000000000000e+00 
1.3148501033131945e-02 6.1927945966145195e-04 5.2769243111666367e-10 
1.3345193170357556e-02 5.0122557216748537e-04 2.4646354278230982e-10 
1.3085472670559003e-02 1.3019120670583132e-03 0.0000000000000000e+00 
1.3085473542382783e-02 1.3019114483184958e-03 0.0000000000000000e+00 
1.3293215567440939e-02 1.3871548773287945e-03 0.0000000000000000e+00 
1.3293215213748259e-02 1.3871565902090236e-03 0.0000000000000000e+00 
1.3085472341528556e-02 1.3019111164808382e-03 -7.2536314887708566e-11 
1.3293214751475038e-02 1.3871550782464544e-03 2.6145198938487803e-10 
1.2884971826660138e-02 7.3955034120870783e-04 0.0000000000000000e+00 
1.2884976320438089e-02 7.3954688012036341e-04 0.0000000000000000e+00 
1.3011917806917732e-02 6.9619520108691495e-04 0.0000000000000000e+00 
1.3011924858899449e-02 6.9619525426660564e-04 0.0000000000000000e+00 
1.2884974543838468e-02 7.3954984852530865e-04 5.3859885834797470e-10 
1.3011921800788256e-02 6.9619701782497063e-04 8.1494490160642372e-10 
1.2821972304994779e-02 1.2325359449103391e-03 0.0000000000000000e+00 
1.2821975707646746e-02 1.2325397683053299e-03 0.0000000000000000e+00 
1.2944291909896159e-02 1.2526451222789696e-03 0.0000000000000000e+00 
1.2944296347414775e-02 1.2526466920050388e-03 0.0000000000000000e+00 
1.2821974042450907e-02 1.2325394837065277e-03 -4.4563696734508826e-10 
1.2944294603725242e-02 1.2526460586984171e-03 -9.4865583890320363e-11 
1.2613794553609434e-02 8.0628893284085605e-04 0.0000000000000000e+00 
1.2613790907343971e-02 8.0628448326032552e-04 0.0000000000000000e+00 
1.2745189519532223e-02 7.7108377592840366e-04 0.0000000000000000e+00 
1.2745191391820523e-02 7.7107864060483363e-04 0.0000000000000000e+00 
1.2613791329853831e-02 8.0628690380591002e-04 -6.9080660824003894e-10 
1.2745190824279284e-02 7.7108098810226608e-04 1.7622985663654251e-10 
1.2559745516829493e-02 1.2369006574548043e-03 0.0000000000000000e+00 
1.2559741852825332e-02 1.2369035339511395e-03 0.0000000000000000e+00 
1.2689706520905390e-02 1.2285990471493826e-03 0.0000000000000000e+00 
1.2689706406617172e-02 1.2286037246912347e-03 0.0000000000000000e+00 
1.2559741605610962e-02 1.2369027374967670e-03 -4.6285655911048727e-10 
1.2689705526390278e-02 1.2286030410901382e-03 -2.2776098229084984e-10 
1.2371286361819176e-02 8.2932707359492284e-04 0.0000000000000000e+00 
1.2371284013870831e-02 8.2932855504192740e-04 0.0000000000000000e+00 
1.2502439939562219e-02 8.3047169057950130e-04 0.0000000000000000e+00 
1.2502434776524938e-02 8.3047038444678944e-04 0.0000000000000000e+00 
1.2371285346851821e-02 8.2932727721006148e-04 -5.9782823895754192e-10 
1.2502437639737091e-02 8.3047093238576228e-04 -8.3914661339052724e-10 
1.2295387606880447e-02 1.3363606809236712e-03 0.0000000000000000e+00 
1.2295382719424774e-02 1.3363571368987226e-03 0.0000000000000000e+00 
1.2437873901576650e-02 1.2763963165824677e-03 0.0000000000000000e+00 
1.2437867836346140e-02 1.2763971342804447e-03 0.0000000000000000e+00 
1.2295385048485135e-02 1.3363586743777188e-03 -1.1978432389026163e-10 
1.2437869796053051e-02 1.2763966059743596e-03 -6.1507656198430257e-11 
1.1994800880311681e-02 7.9240424530577333e-04 0.0000000000000000e+00 
1.1994802383370733e-02 7.9240684242682779e-04 0.0000000000000000e+00 
1.2189867037272890e-02 8.0626610935539749e-04 0.0000000000000000e+00 
1.2189867517636987e-02 8.0626922856861746e-04 0.0000000000000000e+00 
1.1994802724753452e-02 7.9240665376538780e-04 2.3079698613690627e-11 
1.2189867601251746e-02 8.0626776828713752e-04 -2.0420516822847443e-10 
1.1972083385800010e-02 1.3921510171169566e-03 0.0000000000000000e+00 
1.1972087801476294e-02 1.3921446918293754e-03 0.0000000000000000e+00 
1.2135785193460365e-02 1.3744216778281840e-03 0.0000000000000000e+00 
1.2135783353869577e-02 1.3744163665385376e-03 0.0000000000000000e+00 
1.1972085146539760e-02 1.3921490174604065e-03 -1.1361565862282171e-09 
1.2135784599732084e-02 1.3744194872408843e-03 -3.3363771639012123e-10 
1.1723336745078141e-02 8.6828058097294209e-04 0.0000000000000000e+00 
1.1678202414961699e-02 9.8444962815089055e-04 0.0000000000000000e+00 
1.1723341085988544e-02 8.6828386113794391e-04 0.0000000000000000e+00 
1.1678209776353411e-02 9.8445172362097229e-04 0.0000000000000000e+00 
1.1832355298885312e-02 8.2817725792258697e-04 0.0000000000000000e+00 
1.1704982105003432e-02 9.1963911622819090e-04 0.0000000000000000e+00 
1.1832358503260972e-02 8.2817874488343092e-04 0.0000000000000000e+00 
1.1704987423980556e-02 9.1964187114885218e-04 0.0000000000000000e+00 
1.1723341471225151e-02 8.6828521558737098e-04 3.5004666688025957e-10 
1.1678207126088868e-02 9.8444985305203405e-04 3.8746567004525785e-10 
1.1832358127124751e-02 8.2818146766581741e-04 1.6671399813606235e-10 
1.1704986689780261e-02 9.1964207203368243e-04 -4.5105766168090298e-12 
1.1579350726754707e-02 1.1566449528862084e-03 0.0000000000000000e+00 
1.1579362212605936e-02 1.1566422162972241e-03 0.0000000000000000e+00 
1.1637702643529015e-02 1.0598709076410193e-03 0.0000000000000000e+00 
1.1637712078698494e-02 1.0598724348111063e-03 0.0000000000000000e+00 
1.1579353380445096e-02 1.1566447326880613e-03 -1.9058013607013616e-10 
1.1637705771841943e-02 1.0598721087040335e-03 3.4818781334790778e-10 
1.1495407700727109e-02 1.4713140080978575e-03 0.0000000000000000e+00 
1.1495420696659250e-02 1.4713061249949926e-03 0.0000000000000000e+00 
1.1765944535363823e-02 1.4323556274218230e-03 0.0000000000000000e+00 
1.1523350548316418e-02 1.2994561719912583e-03 0.0000000000000000e+00 
1.1765953441314958e-02 1.4323487027083960e-03 0.0000000000000000e+00 
1.1523363235923101e-02 1.2994520879104575e-03 0.0000000000000000e+00 
1.1495409547251829e-02 1.4713140952957453e-03 -1.4331879743777499e-09 
1.1765946640737717e-02 1.4323542815189382e-03 -1.3544133468159464e-09 
1.1523352419722310e-02 1.2994565104911967e-03 -6.5910168778805526e-10 

VECTORS Stress float
1.1406926138220763e+02 -4.0279885793371761e+00 6.7761496257790746e-15 
1.1381355089394469e+02 -2.4930086523502268e+00 8.6740822919601343e-14 
1.1406926138220763e+02 -4.0279885793371761e+00 6.7761496257790746e-15 
1.1381355089394469e+02 -2.4930086523502268e+00 8.6740822919601343e-14 
1.1393211783239462e+02 -2.5111113171565194e+00 2.4085865828169965e-14 
1.1393211783239462e+02 -2.5111113171565194e+00 2.4085865828169965e-14 
1.1406926138220763e+02 -4.0279885793371761e+00 6.7761496257790746e-15 
1.1381355089394469e+02 -2.4930086523502268e+00 8.6740822919601343e-14 
1.1393211783239462e+02 -2.5111113171565194e+00 2.4085865828169965e-14 
1.0434873071440256e+02 -4.2282402280147267e+00 4.5323967036834565e-13 
1.0171123608115204e+02 -2.0640037125101571e+00 5.5129499655189290e-13 
1.0434873071440256e+02 -4.2282402280147267e+00 4.5323967036834565e-13 
1.0171123608115204e+02 -2.0640037125101571e+00 5.5129499655189290e-13 
1.0226279165152800e+02 -2.2155390103463333e+00 5.0341782920241299e-13 
1.0226279165152800e+02 -2.2155390103463333e+00 5.0341782920241299e-13 
1.0434873071440256e+02 -4.2282402280147267e+00 4.5323967036834565e-13 
1.0171123608115204e+02 -2.0640037125101571e+00 5.5129499655189290e-13 
1.0226279165152800e+02 -2.2155390103463333e+00 5.0341782920241299e-13 
1.1379686183223839e+02 -4.2741605519913719e+00 2.3354065763254152e-13 
1.1379686183223839e+02 -4.2741605519913719e+00 2.3354065763254152e-13 
1.1382493766864036e+02 -3.3828077001967358e+00 1.6114699752827887e-13 
1.1382493766864036e+02 -3.3828077001967358e+00 1.6114699752827887e-13 
1.1379686183223839e+02 -4.2741605519913719e+00 2.3354065763254152e-13 
1.1382493766864036e+02 -3.3828077001967358e+00 1.6114699752827887e-13 
1.0235414558389402e+02 -3.9158735697710654e+00 4.0369686619831159e-13 
1.0235414558389402e+02 -3.9158735697710654e+00 4.0369686619831159e-13 
1.0197633602312499e+02 -2.9831737748820615e+00 5.5572568152589112e-13 
1.0197633602312499e+02 -2.9831737748820615e+00 5.5572568152589112e-13 
1.0235414558389402e+02 -3.9158735697710654e+00 4.0369686619831159e-13 
1.0197633602312499e+02 -2.9831737748820615e+00 5.5572568152589112e-13 
1.1336003124619356e+02 -4.9466557488417493e+00 3.1132104841599894e-13 
1.1336003124619356e+02 -4.9466557488417493e+00 3.1132104841599894e-13 
1.1357693077515933e+02 -4.7283105284673184e+00 2.9898782477247432e-13 
1.1357693077515933e+02 -4.7283105284673184e+00 2.9898782477247432e-13 
1.1336003124619356e+02 -4.9466557488417493e+00 3.1132104841599894e-13 
1.1357693077515933e+02 -4.7283105284673184e+00 2.9898782477247432e-13 
1.0287695404054102e+02 -4.6101384303055966e+00 -2.1707990590149732e-13 
1.0287695404054102e+02 -4.6101384303055966e+00 -2.1707990590149732e-13 
1.0262845690382028e+02 -4.3968628976349464e+00 8.0435003790965163e-14 
1.0262845690382028e+02 -4.3968628976349464e+00 8.0435003790965163e-14 
1.0287695404054102e+02 -4.6101384303055966e+00 -2.1707990590149732e-13 
1.0262845690382028e+02 -4.3968628976349464e+00 8.0435003790965163e-14 
1.1264544058997308e+02 -4.7673506801547774e+00 5.8443532759174993e-14 
1.1264544058997308e+02 -4.7673506801547774e+00 5.8443532759174993e-14 
1.1299078667313506e+02 -4.9052484603639641e+00 1.9598772931629524e-13 
1.1299078667313506e+02 -4.9052484603639641e+00 1.9598772931629524e-13 
1.1264544058997308e+02 -4.7673506801547774e+00 5.8443532759174993e-14 
1.1299078667313506e+02 -4.9052484603639641e+00 1.9598772931629524e-13 
1.0391808259041409e+02 -4.4501126401469264e+00 -2.7880059101867115e-13 
1.0391808259041409e+02 -4.4501126401469264e+00 -2.7880059101867115e-13 
1.0337597748562848e+02 -4.5898025776687064e+00 -2.9676555106027087e-13 
1.0337597748562848e+02 -4.5898025776687064e+00 -2.9676555106027087e-13 
1.0391808259041409e+02 -4.4501126401469264e+00 -2.7880059101867115e-13 
1.0337597748562848e+02 -4.5898025776687064e+00 -2.9676555106027087e-13 
1.1164789542166909e+02 -4.5952411066550667e+00 -1.1078172606742836e-13 
1.1164789542166909e+02 -4.5952411066550667e+00 -1.1078172606742836e-13 
1.1218030682224980e+02 -4.6800239040326232e+00 -4.6673567386726058e-14 
1.1218030682224980e+02 -4.6800239040326232e+00 -4.6673567386726058e-14 
1.1164789542166909e+02 -4.5952411066550667e+00 -1.1078172606742836e-13 
1.1218030682224980e+02 -4.6800239040326232e+00 -4.6673567386726058e-14 
1.0542297991865780e+02 -4.3138890294030716e+00 -1.2112642629463385e-13 
1.0542297991865780e+02 -4.3138890294030716e+00 -1.2112642629463385e-13 
1.0461192801218567e+02 -4.3773345027643700e+00 -2.1165735739283728e-13 
1.0461192801218567e+02 -4.3773345027643700e+00 -2.1165735739283728e-13 
1.0542297991865780e+02 -4.3138890294030716e+00 -1.2112642629463385e-13 
1.0461192801218567e+02 -4.3773345027643700e+00 -2.1165735739283728e-13 
1.1046894417027852e+02 -3.6253939664406971e+00 -7.7940857320011294e-14 
1.1046894417027852e+02 -3.6253939664406971e+00 -7.7940857320011294e-14 
1.1111732949865291e+02 -4.2919364318495354e+00 -1.2597740886683974e-13 
1.1111732949865291e+02 -4.2919364318495354e+00 -1.2597740886683974e-13 
1.1046894417027852e+02 -3.6253939664406971e+00 -7.7940857320011294e-14 
1.1111732949865291e+02 -4.2919364318495354e+00 -1.2597740886683974e-13 
1.0753549951835612e+02 -3.4559193461936957e+00 -3.7342754991755594e-14 
1.0753549951835612e+02 -3.4559193461936957e+00 -3.7342754991755594e-14 
1.0634356423681493e+02 -4.0381238832292183e+00 -5.0166905968840591e-14 
1.0634356423681493e+02 -4.0381238832292183e+00 -5.0166905968840591e-14 
1.0753549951835612e+02 -3.4559193461936957e+00 -3.7342754991755594e-14 
1.0634356423681493e+02 -4.0381238832292183e+00 -5.0166905968840591e-14 
1.0904635973451968e+02 -2.5189538116806034e+00 1.1587666445947394e-14 
1.0904635973451968e+02 -2.5189538116806034e+00 1.1587666445947394e-14 
1.0984653830496427e+02 -2.9326862288489792e+00 -1.9838841362860739e-14 
1.0984653830496427e+02 -2.9326862288489792e+00 -1.9838841362860739e-14 
1.0904635973451968e+02 -2.5189538116806034e+00 1.1587666445947394e-14 
1.0984653830496427e+02 -2.9326862288489792e+00 -1.9838841362860739e-14 
1.1028576593291018e+02 -2.4885970439768244e+00 -3.8446271653369790e-14 
1.1028576593291018e+02 -2.4885970439768244e+00 -3.8446271653369790e-14 
1.0879303811494538e+02 -2.8282242599457277e+00 -3.9599941916245111e-14 
1.0879303811494538e+02 -2.8282242599457277e+00 -3.9599941916245111e-14 
1.1028576593291018e+02 -2.4885970439768244e+00 -3.8446271653369790e-14 
1.0879303811494538e+02 -2.8282242599457277e+00 -3.9599941916245111e-14 
1.0728271189168481e+02 -1.7991898705063250e+00 4.9581821975521244e-14 
1.0728271189168481e+02 -1.7991898705063250e+00 4.9581821975521244e-14 
1.0820030754618892e+02 -2.2322482650019992e+00 2.8776980761076157e-14 
1.0820030754618892e+02 -2.2322482650019992e+00 2.8776980761076157e-14 
1.0728271189168481e+02 -1.7991898705063250e+00 4.9581821975521244e-14 
1.0820030754618892e+02 -2.2322482650019992e+00 2.8776980761076157e-14 
1.1370245096744657e+02 -1.8485075971352671e+00 -1.0776307426001393e-14 
1.1370245096744657e+02 -1.8485075971352671e+00 -1.0776307426001393e-14 
1.1189537597413437e+02 -2.2515227256913022e+00 -3.1649701540995476e-14 
1.1189537597413437e+02 -2.2515227256913022e+00 -3.1649701540995476e-14 
1.1370245096744657e+02 -1.8485075971352671e+00 -1.0776307426001393e-14 
1.1189537597413437e+02 -2.2515227256913022e+00 -3.1649701540995476e-14 
1.0520530189450619e+02 -3.1601414561964702e-01 9.2135644664276065e-14 
1.0520530189450619e+02 -3.1601414561964702e-01 9.2135644664276065e-14 
1.0624801417356139e+02 -1.1202707442553219e+00 7.5812947375747437e-14 
1.0624801417356139e+02 -1.1202707442553219e+00 7.5812947375747437e-14 
1.0520530189450619e+02 -3.1601414561964702e-01 9.2135644664276065e-14 
1.0624801417356139e+02 -1.1202707442553219e+00 7.5812947375747437e-14 
1.1796726955192025e+02 -3.3699634169897763e-01 5.9129549901511904e-14 
1.1796726955192025e+02 -3.3699634169897763e-01 5.9129549901511904e-14 
1.1577329819901297e+02 -1.1840753368801415e+00 2.5219903726866804e-14 
1.1577329819901297e+02 -1.1840753368801415e+00 2.5219903726866804e-14 
1.1796726955192025e+02 -3.3699634169897763e-01 5.9129549901511904e-14 
1.1577329819901297e+02 -1.1840753368801415e+00 2.5219903726866804e-14 
1.0272639610738634e+02 1.3240751798966812e+00 5.5318843972246376e-14 
1.0272639610738634e+02 1.3240751798966812e+00 5.5318843972246376e-14 
1.0400743834806190e+02 5.5644273189773230e-01 7.9378645550155075e-14 
1.0400743834806190e+02 5.5644273189773230e-01 7.9378645550155075e-14 
1.0272639610738634e+02 1.3240751798966812e+00 5.5318843972246376e-14 
1.0400743834806190e+02 5.5644273189773230e-01 7.9378645550155075e-14 
1.2303259795119720e+02 1.5418631170014123e+00 9.2955169685915360e-14 
1.2303259795119720e+02 1.5418631170014123e+00 9.2955169685915360e-14 
1.2047033744582814e+02 6.2762277369756703e-01 8.1598983558002125e-14 
1.2047033744582814e+02 6.2762277369756703e-01 8.1598983558002125e-14 
1.2303259795119720e+02 1.5418631170014123e+00 9.2955169685915360e-14 
1.2047033744582814e+02 6.2762277369756703e-01 8.1598983558002125e-14 
9.9536378806025368e+01 1.8276228954732687e+00 3.0604022621934491e-14 
9.9536378806025368e+01 1.8276228954732687e+00 3.0604022621934491e-14 
1.0125154080483435e+02 1.7502365665827710e+00 4.1531526858801658e-14 
1.0125154080483435e+02 1.7502365665827710e+00 4.1531526858801658e-14 
9.9536378806025368e+01 1.8276228954732687e+00 3.0604022621934491e-14 
1.0125154080483435e+02 1.7502365665827710e+00 4.1531526858801658e-14 
1.2824343672683108e+02 2.2895385627048199e+00 7.4659038317085472e-14 
1.2824343672683108e+02 2.2895385627048199e+00 7.4659038317085472e-14 
1.2565234030447982e+02 2.0961648350721589e+00 9.0659028218728372e-14 
1.2565234030447982e+02 2.0961648350721589e+00 9.0659028218728372e-14 
1.2824343672683108e+02 2.2895385627048199e+00 7.4659038317085472e-14 
1.2565234030447982e+02 2.0961648350721589e+00 9.0659028218728372e-14 
9.5251493884698448e+01 1.3409096185537237e+00 -9.2048067998168243e-14 
9.5251493884698448e+01 1.3409096185537237e+00 -9.2048067998168243e-14 
9.7563423009645248e+01 1.6681637006067831e+00 -7.8035710768369168e-15 
9.7563423009645248e+01 1.6681637006067831e+00 -7.8035710768369168e-15 
9.5251493884698448e+01 1.3409096185537237e+00 -9.2048067998168243e-14 
9.7563423009645248e+01 1.6681637006067831e+00 -7.8035710768369168e-15 
1.3297729947684275e+02 1.8400537012853420e+00 4.5209984265384288e-15 
1.3297729947684275e+02 1.8400537012853420e+00 4.5209984265384288e-15 
1.3069070291019898e+02 2.2125751465941903e+00 4.4936046568074642e-14 
1.3069070291019898e+02 2.2125751465941903e+00 4.4936046568074642e-14 
1.3297729947684275e+02 1.8400537012853420e+00 4.5209984265384288e-15 
1.3069070291019898e+02 2.2125751465941903e+00 4.4936046568074642e-14 
8.9564169036300882e+01 8.6293600561157291e-01 -2.7133187857799184e-13 
8.9564169036300882e+01 8.6293600561157291e-01 -2.7133187857799184e-13 
9.2579691033288782e+01 1.0179212994435147e+00 -1.8606154002079343e-13 
9.2579691033288782e+01 1.0179212994435147e+00 -1.8606154002079343e-13 
8.9564169036300882e+01 8.6293600561157291e-01 -2.7133187857799184e-13 
9.2579691033288782e+01 1.0179212994435147e+00 -1.8606154002079343e-13 
1.3670134871081609e+02 1.1978434104303233e+00 7.2741589349982835e-15 
1.3670134871081609e+02 1.1978434104303233e+00 7.2741589349982835e-15 
1.3500078766743991e+02 1.4747293905470542e+00 -2.1483267003545153e-14 
1.3500078766743991e+02 1.4747293905470542e+00 -2.1483267003545153e-14 
1.3670134871081609e+02 1.1978434104303233e+00 7.2741589349982835e-15 
1.3500078766743991e+02 1.4747293905470542e+00 -2.1483267003545153e-14 
8.2081226851677002e+01 3.5797625256782339e-01 -2.7318855546941004e-13 
8.2081226851677002e+01 3.5797625256782339e-01 -2.7318855546941004e-13 
8.6074632012448092e+01 7.8696418936942791e-01 -3.2297616864891222e-13 
8.6074632012448092e+01 7.8696418936942791e-01 -3.2297616864891222e-13 
8.2081226851677002e+01 3.5797625256782339e-01 -2.7318855546941004e-13 
8.6074632012448092e+01 7.8696418936942791e-01 -3.2297616864891222e-13 
1.3916549763155899e+02 6.5704795764577284e-01 8.8200760403357866e-14 
1.3916549763155899e+02 6.5704795764577284e-01 8.8200760403357866e-14 
1.3806581085171456e+02 1.0318922326212032e+00 6.6123639150535115e-14 
1.3806581085171456e+02 1.0318922326212032e+00 6.6123639150535115e-14 
1.3916549763155899e+02 6.5704795764577284e-01 8.8200760403357866e-14 
1.3806581085171456e+02 1.0318922326212032e+00 6.6123639150535115e-14 
7.1794671795008071e+01 6.0400042142828170e-01 8.2237799115931538e-14 
7.1794671795008071e+01 6.0400042142828170e-01 8.2237799115931538e-14 
7.7441629684378768e+01 -2.2854661964424849e-01 -1.0769254875276206e-13 
7.7441629684378768e+01 -2.2854661964424849e-01 -1.0769254875276206e-13 
7.1794671795008071e+01 6.0400042142828170e-01 8.2237799115931538e-14 
7.7441629684378995e+01 -2.2854661964402112e-01 -1.0769254875276772e-13 
1.3921997543077055e+02 8.9511998742364085e-01 -6.7002373300636065e-15 
1.3921997543077055e+02 8.9511998742364085e-01 -6.7002373300636065e-15 
1.3981431718149088e+02 2.1529655182143870e-01 4.8295787207153625e-14 
1.3981431718149088e+02 2.1529655182143870e-01 4.8295787207153625e-14 
1.3921997543077055e+02 8.9511998742364085e-01 -6.7002373300636065e-15 
1.3981431718149133e+02 2.1529655182052920e-01 4.8295787207159987e-14 
5.6644370368775640e+01 4.7464069323580134e+00 3.9047229904685682e-13 
5.6644370368775640e+01 4.7464069323580134e+00 3.9047229904685682e-13 
6.5001540937983009e+01 4.5309741029532233e+00 2.5566656850788417e-13 
6.5001540937983009e+01 4.5309741029532233e+00 2.5566656850788417e-13 
5.6644370368775640e+01 4.7464069323580134e+00 3.9047229904685682e-13 
6.5001540937983009e+01 4.5309741029532233e+00 2.5566656850788417e-13 
1.3453909613685113e+02 3.8593531882407319e+00 -1.3453124216755418e-13 
1.3453909613685113e+02 3.8593531882407319e+00 -1.3453124216755418e-13 
1.3637677950164118e+02 3.7040882211551889e+00 -7.3300642878897348e-14 
1.3637677950164118e+02 3.7040882211551889e+00 -7.3300642878897348e-14 
1.3453909613685113e+02 3.8593531882407319e+00 -1.3453124216755418e-13 
1.3637677950164118e+02 3.7040882211551889e+00 -7.3300642878897348e-14 
3.1124154632252385e+01 -3.1970156565809134e+01 3.2725543955732344e-13 
3.1124154632252385e+01 -3.1970156565809134e+01 3.2725543955732344e-13 
4.6062943361577368e+01 -1.5662043526787784e+01 4.0969214696325985e-13 
4.6062943361577368e+01 -1.5662043526787784e+01 4.0969214696325985e-13 
3.1124154632252385e+01 -3.1970156565809134e+01 3.2725543955732344e-13 
4.6062943361577481e+01 -1.5662043526787897e+01 4.0969214696325425e-13 
1.4771407840147847e+02 -2.1041977612285962e+01 -6.3431246691497601e-14 
1.4771407840147847e+02 -2.1041977612285962e+01 -6.3431246691497601e-14 
1.4232583690489176e+02 -1.0468972283723076e+01 -1.2401575488785674e-13 
1.4232583690489176e+02 -1.0468972283723076e+01 -1.2401575488785674e-13 
1.4771407840147847e+02 -2.1041977612285962e+01 -6.3431246691497601e-14 
1.4232583690489162e+02 -1.0468972283723303e+01 -1.2401575488785551e-13 
-9.0967358779466849e+00 1.8114599102871193e+02 4.1249946067704660e-14 
1.0572397944122827e+00 2.0149037436206970e+02 -5.7077668967324906e-15 
-9.0967358779466849e+00 1.8114599102871193e+02 4.1249946067704660e-14 
1.0572397944122827e+00 2.0149037436206970e+02 -5.7077668967324906e-15 
1.2361169099912445e+01 2.4821174220506236e+01 1.9467869631839680e-13 
-4.4555339989710774e-01 2.0683362311727700e+02 7.5761386157849035e-17 
1.2361169099912445e+01 2.4821174220506236e+01 1.9467869631839680e-13 
-4.4555339989710774e-01 2.0683362311727700e+02 7.5761386157849035e-17 
-9.0967358779466849e+00 1.8114599102871193e+02 4.1249946067704660e-14 
1.0572397944122827e+00 2.0149037436206970e+02 -5.7077668967324906e-15 
1.2361169099912445e+01 2.4821174220506236e+01 1.9467869631839680e-13 
-4.4555339989710774e-01 2.0683362311727700e+02 7.5761386157849035e-17 
-4.5831655036122925e+00 1.6674937577842206e+02 3.6099539376622347e-15 
-4.5831655036122925e+00 1.6674937577842206e+02 3.6099539376622347e-15 
-7.9137332256954096e-01 1.8460217400337370e+02 -3.9336531424907026e-18 
-7.9137332256954096e-01 1.8460217400337370e+02 -3.9336531424907026e-18 
-4.5831655036122925e+00 1.6674937577842206e+02 3.6099539376622347e-15 
-7.9137332256954096e-01 1.8460217400337370e+02 -3.9336531424907026e-18 
2.3818490463752681e+01 1.2146406655979567e+02 -2.0501119126560345e-14 
2.3818490463752681e+01 1.2146406655979567e+02 -2.0501119126560345e-14 
1.1309299267182757e+02 1.6654398538820857e+01 -2.0119486479477053e-14 
-1.3640462592782114e+00 1.4680999278377368e+02 -1.2380143883299142e-17 
1.1309299267182757e+02 1.6654398538820857e+01 -2.0119486479477053e-14 
-1.3640462592782114e+00 1.4680999278377368e+02 -1.2380143883299142e-17 
2.3818490463752681e+01 1.2146406655979567e+02 -2.0501119126560345e-14 
1.1309299267182757e+02 1.6654398538820857e+01 -2.0119486479477053e-14 
-1.3640462592782114e+00 1.4680999278377362e+02 -1.2380143883299142e-17 

