# vtk DataFile Version 2.0

ASCII

DATASET UNSTRUCTURED_GRID

POINTS 237 float 

-5.0000000000000003e-02  0.0000000000000000e+00  0.0000000000000000e+00
-5.0000000000000003e-02  5.5555555555555552e-02  0.0000000000000000e+00
-5.0000000000000003e-02  0.0000000000000000e+00  2.9999999999999999e-01
-5.0000000000000003e-02  5.5555555555555552e-02  2.9999999999999999e-01
-5.0000000000000003e-02  2.7777777777777776e-02  0.0000000000000000e+00
-5.0000000000000003e-02  2.7777777777777776e-02  2.9999999999999999e-01
-5.0000000000000003e-02  0.0000000000000000e+00  1.4999999999999999e-01
-5.0000000000000003e-02  5.5555555555555552e-02  1.4999999999999999e-01
-5.0000000000000003e-02  2.7777777777777776e-02  1.4999999999999999e-01
5.0000000000000003e-02  0.0000000000000000e+00  0.0000000000000000e+00
5.0000000000000003e-02  5.5555555555555552e-02  0.0000000000000000e+00
5.0000000000000003e-02  0.0000000000000000e+00  2.9999999999999999e-01
5.0000000000000003e-02  5.5555555555555552e-02  2.9999999999999999e-01
5.0000000000000003e-02  2.7777777777777776e-02  0.0000000000000000e+00
5.0000000000000003e-02  2.7777777777777776e-02  2.9999999999999999e-01
5.0000000000000003e-02  0.0000000000000000e+00  1.4999999999999999e-01
5.0000000000000003e-02  5.5555555555555552e-02  1.4999999999999999e-01
5.0000000000000003e-02  2.7777777777777776e-02  1.4999999999999999e-01
-5.0000000000000003e-02  1.1111111111111110e-01  0.0000000000000000e+00
-5.0000000000000003e-02  1.1111111111111110e-01  2.9999999999999999e-01
-5.0000000000000003e-02  8.3333333333333329e-02  0.0000000000000000e+00
-5.0000000000000003e-02  8.3333333333333329e-02  2.9999999999999999e-01
-5.0000000000000003e-02  1.1111111111111110e-01  1.4999999999999999e-01
-5.0000000000000003e-02  8.3333333333333329e-02  1.4999999999999999e-01
5.0000000000000003e-02  1.1111111111111110e-01  0.0000000000000000e+00
5.0000000000000003e-02  1.1111111111111110e-01  2.9999999999999999e-01
5.0000000000000003e-02  8.3333333333333329e-02  0.0000000000000000e+00
5.0000000000000003e-02  8.3333333333333329e-02  2.9999999999999999e-01
5.0000000000000003e-02  1.1111111111111110e-01  1.4999999999999999e-01
5.0000000000000003e-02  8.3333333333333329e-02  1.4999999999999999e-01
-5.0000000000000003e-02  1.6666666666666666e-01  0.0000000000000000e+00
-5.0000000000000003e-02  1.6666666666666666e-01  2.9999999999999999e-01
-5.0000000000000003e-02  1.3888888888888890e-01  0.0000000000000000e+00
-5.0000000000000003e-02  1.3888888888888890e-01  2.9999999999999999e-01
-5.0000000000000003e-02  1.6666666666666666e-01  1.4999999999999999e-01
-5.0000000000000003e-02  1.3888888888888890e-01  1.4999999999999999e-01
5.0000000000000003e-02  1.6666666666666666e-01  0.0000000000000000e+00
5.0000000000000003e-02  1.6666666666666666e-01  2.9999999999999999e-01
5.0000000000000003e-02  1.3888888888888890e-01  0.0000000000000000e+00
5.0000000000000003e-02  1.3888888888888890e-01  2.9999999999999999e-01
5.0000000000000003e-02  1.6666666666666666e-01  1.4999999999999999e-01
5.0000000000000003e-02  1.3888888888888890e-01  1.4999999999999999e-01
-5.0000000000000003e-02  2.2222222222222221e-01  0.0000000000000000e+00
-5.0000000000000003e-02  2.2222222222222221e-01  2.9999999999999999e-01
-5.0000000000000003e-02  1.9444444444444442e-01  0.0000000000000000e+00
-5.0000000000000003e-02  1.9444444444444442e-01  2.9999999999999999e-01
-5.0000000000000003e-02  2.2222222222222221e-01  1.4999999999999999e-01
-5.0000000000000003e-02  1.9444444444444442e-01  1.4999999999999999e-01
5.0000000000000003e-02  2.2222222222222221e-01  0.0000000000000000e+00
5.0000000000000003e-02  2.2222222222222221e-01  2.9999999999999999e-01
5.0000000000000003e-02  1.9444444444444442e-01  0.0000000000000000e+00
5.0000000000000003e-02  1.9444444444444442e-01  2.9999999999999999e-01
5.0000000000000003e-02  2.2222222222222221e-01  1.4999999999999999e-01
5.0000000000000003e-02  1.9444444444444442e-01  1.4999999999999999e-01
-5.0000000000000003e-02  2.7777777777777779e-01  0.0000000000000000e+00
-5.0000000000000003e-02  2.7777777777777779e-01  2.9999999999999999e-01
-5.0000000000000003e-02  2.5000000000000000e-01  0.0000000000000000e+00
-5.0000000000000003e-02  2.5000000000000000e-01  2.9999999999999999e-01
-5.0000000000000003e-02  2.7777777777777779e-01  1.4999999999999999e-01
-5.0000000000000003e-02  2.5000000000000000e-01  1.4999999999999999e-01
5.0000000000000003e-02  2.7777777777777779e-01  0.0000000000000000e+00
5.0000000000000003e-02  2.7777777777777779e-01  2.9999999999999999e-01
5.0000000000000003e-02  2.5000000000000000e-01  0.0000000000000000e+00
5.0000000000000003e-02  2.5000000000000000e-01  2.9999999999999999e-01
5.0000000000000003e-02  2.7777777777777779e-01  1.4999999999999999e-01
5.0000000000000003e-02  2.5000000000000000e-01  1.4999999999999999e-01
-5.0000000000000003e-02  3.3333333333333331e-01  0.0000000000000000e+00
-5.0000000000000003e-02  3.3333333333333331e-01  2.9999999999999999e-01
-5.0000000000000003e-02  3.0555555555555558e-01  0.0000000000000000e+00
-5.0000000000000003e-02  3.0555555555555558e-01  2.9999999999999999e-01
-5.0000000000000003e-02  3.3333333333333331e-01  1.4999999999999999e-01
-5.0000000000000003e-02  3.0555555555555558e-01  1.4999999999999999e-01
5.0000000000000003e-02  3.3333333333333331e-01  0.0000000000000000e+00
5.0000000000000003e-02  3.3333333333333331e-01  2.9999999999999999e-01
5.0000000000000003e-02  3.0555555555555558e-01  0.0000000000000000e+00
5.0000000000000003e-02  3.0555555555555558e-01  2.9999999999999999e-01
5.0000000000000003e-02  3.3333333333333331e-01  1.4999999999999999e-01
5.0000000000000003e-02  3.0555555555555558e-01  1.4999999999999999e-01
-5.0000000000000003e-02  3.8888888888888884e-01  0.0000000000000000e+00
-5.0000000000000003e-02  3.8888888888888884e-01  2.9999999999999999e-01
-5.0000000000000003e-02  3.6111111111111105e-01  0.0000000000000000e+00
-5.0000000000000003e-02  3.6111111111111105e-01  2.9999999999999999e-01
-5.0000000000000003e-02  3.8888888888888884e-01  1.4999999999999999e-01
-5.0000000000000003e-02  3.6111111111111105e-01  1.4999999999999999e-01
5.0000000000000003e-02  3.8888888888888884e-01  0.0000000000000000e+00
5.0000000000000003e-02  3.8888888888888884e-01  2.9999999999999999e-01
5.0000000000000003e-02  3.6111111111111105e-01  0.0000000000000000e+00
5.0000000000000003e-02  3.6111111111111105e-01  2.9999999999999999e-01
5.0000000000000003e-02  3.8888888888888884e-01  1.4999999999999999e-01
5.0000000000000003e-02  3.6111111111111105e-01  1.4999999999999999e-01
-5.0000000000000003e-02  4.4444444444444442e-01  0.0000000000000000e+00
-5.0000000000000003e-02  4.4444444444444442e-01  2.9999999999999999e-01
-5.0000000000000003e-02  4.1666666666666663e-01  0.0000000000000000e+00
-5.0000000000000003e-02  4.1666666666666663e-01  2.9999999999999999e-01
-5.0000000000000003e-02  4.4444444444444442e-01  1.4999999999999999e-01
-5.0000000000000003e-02  4.1666666666666663e-01  1.4999999999999999e-01
5.0000000000000003e-02  4.4444444444444442e-01  0.0000000000000000e+00
5.0000000000000003e-02  4.4444444444444442e-01  2.9999999999999999e-01
5.0000000000000003e-02  4.1666666666666663e-01  0.0000000000000000e+00
5.0000000000000003e-02  4.1666666666666663e-01  2.9999999999999999e-01
5.0000000000000003e-02  4.4444444444444442e-01  1.4999999999999999e-01
5.0000000000000003e-02  4.1666666666666663e-01  1.4999999999999999e-01
-5.0000000000000003e-02  5.0000000000000000e-01  0.0000000000000000e+00
-5.0000000000000003e-02  5.0000000000000000e-01  2.9999999999999999e-01
-5.0000000000000003e-02  4.7222222222222221e-01  0.0000000000000000e+00
-5.0000000000000003e-02  4.7222222222222221e-01  2.9999999999999999e-01
-5.0000000000000003e-02  5.0000000000000000e-01  1.4999999999999999e-01
-5.0000000000000003e-02  4.7222222222222221e-01  1.4999999999999999e-01
5.0000000000000003e-02  5.0000000000000000e-01  0.0000000000000000e+00
5.0000000000000003e-02  5.0000000000000000e-01  2.9999999999999999e-01
5.0000000000000003e-02  4.7222222222222221e-01  0.0000000000000000e+00
5.0000000000000003e-02  4.7222222222222221e-01  2.9999999999999999e-01
5.0000000000000003e-02  5.0000000000000000e-01  1.4999999999999999e-01
5.0000000000000003e-02  4.7222222222222221e-01  1.4999999999999999e-01
-5.0000000000000003e-02  5.5555555555555558e-01  0.0000000000000000e+00
-5.0000000000000003e-02  5.5555555555555558e-01  2.9999999999999999e-01
-5.0000000000000003e-02  5.2777777777777779e-01  0.0000000000000000e+00
-5.0000000000000003e-02  5.2777777777777779e-01  2.9999999999999999e-01
-5.0000000000000003e-02  5.5555555555555558e-01  1.4999999999999999e-01
-5.0000000000000003e-02  5.2777777777777779e-01  1.4999999999999999e-01
5.0000000000000003e-02  5.5555555555555558e-01  0.0000000000000000e+00
5.0000000000000003e-02  5.5555555555555558e-01  2.9999999999999999e-01
5.0000000000000003e-02  5.2777777777777779e-01  0.0000000000000000e+00
5.0000000000000003e-02  5.2777777777777779e-01  2.9999999999999999e-01
5.0000000000000003e-02  5.5555555555555558e-01  1.4999999999999999e-01
5.0000000000000003e-02  5.2777777777777779e-01  1.4999999999999999e-01
-5.0000000000000003e-02  6.1111111111111105e-01  0.0000000000000000e+00
-5.0000000000000003e-02  6.1111111111111105e-01  2.9999999999999999e-01
-5.0000000000000003e-02  5.8333333333333326e-01  0.0000000000000000e+00
-5.0000000000000003e-02  5.8333333333333326e-01  2.9999999999999999e-01
-5.0000000000000003e-02  6.1111111111111105e-01  1.4999999999999999e-01
-5.0000000000000003e-02  5.8333333333333326e-01  1.4999999999999999e-01
5.0000000000000003e-02  6.1111111111111105e-01  0.0000000000000000e+00
5.0000000000000003e-02  6.1111111111111105e-01  2.9999999999999999e-01
5.0000000000000003e-02  5.8333333333333326e-01  0.0000000000000000e+00
5.0000000000000003e-02  5.8333333333333326e-01  2.9999999999999999e-01
5.0000000000000003e-02  6.1111111111111105e-01  1.4999999999999999e-01
5.0000000000000003e-02  5.8333333333333326e-01  1.4999999999999999e-01
-5.0000000000000003e-02  6.6666666666666663e-01  0.0000000000000000e+00
-5.0000000000000003e-02  6.6666666666666663e-01  2.9999999999999999e-01
-5.0000000000000003e-02  6.3888888888888884e-01  0.0000000000000000e+00
-5.0000000000000003e-02  6.3888888888888884e-01  2.9999999999999999e-01
-5.0000000000000003e-02  6.6666666666666663e-01  1.4999999999999999e-01
-5.0000000000000003e-02  6.3888888888888884e-01  1.4999999999999999e-01
5.0000000000000003e-02  6.6666666666666663e-01  0.0000000000000000e+00
5.0000000000000003e-02  6.6666666666666663e-01  2.9999999999999999e-01
5.0000000000000003e-02  6.3888888888888884e-01  0.0000000000000000e+00
5.0000000000000003e-02  6.3888888888888884e-01  2.9999999999999999e-01
5.0000000000000003e-02  6.6666666666666663e-01  1.4999999999999999e-01
5.0000000000000003e-02  6.3888888888888884e-01  1.4999999999999999e-01
-5.0000000000000003e-02  7.2222222222222221e-01  0.0000000000000000e+00
-5.0000000000000003e-02  7.2222222222222221e-01  2.9999999999999999e-01
-5.0000000000000003e-02  6.9444444444444442e-01  0.0000000000000000e+00
-5.0000000000000003e-02  6.9444444444444442e-01  2.9999999999999999e-01
-5.0000000000000003e-02  7.2222222222222221e-01  1.4999999999999999e-01
-5.0000000000000003e-02  6.9444444444444442e-01  1.4999999999999999e-01
5.0000000000000003e-02  7.2222222222222221e-01  0.0000000000000000e+00
5.0000000000000003e-02  7.2222222222222221e-01  2.9999999999999999e-01
5.0000000000000003e-02  6.9444444444444442e-01  0.0000000000000000e+00
5.0000000000000003e-02  6.9444444444444442e-01  2.9999999999999999e-01
5.0000000000000003e-02  7.2222222222222221e-01  1.4999999999999999e-01
5.0000000000000003e-02  6.9444444444444442e-01  1.4999999999999999e-01
-5.0000000000000003e-02  7.7777777777777768e-01  0.0000000000000000e+00
-5.0000000000000003e-02  7.7777777777777768e-01  2.9999999999999999e-01
-5.0000000000000003e-02  7.5000000000000000e-01  0.0000000000000000e+00
-5.0000000000000003e-02  7.5000000000000000e-01  2.9999999999999999e-01
-5.0000000000000003e-02  7.7777777777777768e-01  1.4999999999999999e-01
-5.0000000000000003e-02  7.5000000000000000e-01  1.4999999999999999e-01
5.0000000000000003e-02  7.7777777777777768e-01  0.0000000000000000e+00
5.0000000000000003e-02  7.7777777777777768e-01  2.9999999999999999e-01
5.0000000000000003e-02  7.5000000000000000e-01  0.0000000000000000e+00
5.0000000000000003e-02  7.5000000000000000e-01  2.9999999999999999e-01
5.0000000000000003e-02  7.7777777777777768e-01  1.4999999999999999e-01
5.0000000000000003e-02  7.5000000000000000e-01  1.4999999999999999e-01
-5.0000000000000003e-02  8.3333333333333326e-01  0.0000000000000000e+00
-5.0000000000000003e-02  8.3333333333333326e-01  2.9999999999999999e-01
-5.0000000000000003e-02  8.0555555555555547e-01  0.0000000000000000e+00
-5.0000000000000003e-02  8.0555555555555547e-01  2.9999999999999999e-01
-5.0000000000000003e-02  8.3333333333333326e-01  1.4999999999999999e-01
-5.0000000000000003e-02  8.0555555555555536e-01  1.4999999999999999e-01
5.0000000000000003e-02  8.3333333333333326e-01  0.0000000000000000e+00
5.0000000000000003e-02  8.3333333333333326e-01  2.9999999999999999e-01
5.0000000000000003e-02  8.0555555555555547e-01  0.0000000000000000e+00
5.0000000000000003e-02  8.0555555555555547e-01  2.9999999999999999e-01
5.0000000000000003e-02  8.3333333333333326e-01  1.4999999999999999e-01
5.0000000000000003e-02  8.0555555555555536e-01  1.4999999999999999e-01
-5.0000000000000003e-02  8.8888888888888884e-01  0.0000000000000000e+00
-5.0000000000000003e-02  8.8888888888888884e-01  2.9999999999999999e-01
-5.0000000000000003e-02  8.6111111111111105e-01  0.0000000000000000e+00
-5.0000000000000003e-02  8.6111111111111105e-01  2.9999999999999999e-01
-5.0000000000000003e-02  8.8888888888888884e-01  1.4999999999999999e-01
-5.0000000000000003e-02  8.6111111111111105e-01  1.4999999999999999e-01
5.0000000000000003e-02  8.8888888888888884e-01  0.0000000000000000e+00
5.0000000000000003e-02  8.8888888888888884e-01  2.9999999999999999e-01
5.0000000000000003e-02  8.6111111111111105e-01  0.0000000000000000e+00
5.0000000000000003e-02  8.6111111111111105e-01  2.9999999999999999e-01
5.0000000000000003e-02  8.8888888888888884e-01  1.4999999999999999e-01
5.0000000000000003e-02  8.6111111111111105e-01  1.4999999999999999e-01
-5.0000000000000003e-02  9.4444444444444442e-01  0.0000000000000000e+00
-5.0000000000000003e-02  9.4444444444444442e-01  2.9999999999999999e-01
-5.0000000000000003e-02  9.1666666666666663e-01  0.0000000000000000e+00
-5.0000000000000003e-02  9.1666666666666663e-01  2.9999999999999999e-01
-5.0000000000000003e-02  9.4444444444444442e-01  1.4999999999999999e-01
-5.0000000000000003e-02  9.1666666666666674e-01  1.4999999999999999e-01
5.0000000000000003e-02  9.4444444444444442e-01  0.0000000000000000e+00
5.0000000000000003e-02  9.4444444444444442e-01  2.9999999999999999e-01
5.0000000000000003e-02  9.1666666666666663e-01  0.0000000000000000e+00
5.0000000000000003e-02  9.1666666666666663e-01  2.9999999999999999e-01
5.0000000000000003e-02  9.4444444444444442e-01  1.4999999999999999e-01
5.0000000000000003e-02  9.1666666666666674e-01  1.4999999999999999e-01
-5.0000000000000003e-02  1.0000000000000000e+00  0.0000000000000000e+00
-1.6666666666666670e-02  1.0000000000000000e+00  0.0000000000000000e+00
-5.0000000000000003e-02  1.0000000000000000e+00  2.9999999999999999e-01
-1.6666666666666670e-02  1.0000000000000000e+00  2.9999999999999999e-01
-5.0000000000000003e-02  9.7222222222222221e-01  0.0000000000000000e+00
-3.3333333333333340e-02  1.0000000000000000e+00  0.0000000000000000e+00
-5.0000000000000003e-02  9.7222222222222221e-01  2.9999999999999999e-01
-3.3333333333333340e-02  1.0000000000000000e+00  2.9999999999999999e-01
-5.0000000000000003e-02  1.0000000000000000e+00  1.4999999999999999e-01
-1.6666666666666670e-02  1.0000000000000000e+00  1.4999999999999999e-01
-5.0000000000000003e-02  9.7222222222222221e-01  1.4999999999999999e-01
-3.3333333333333340e-02  1.0000000000000000e+00  1.4999999999999999e-01
1.6666666666666663e-02  1.0000000000000000e+00  0.0000000000000000e+00
1.6666666666666663e-02  1.0000000000000000e+00  2.9999999999999999e-01
-3.4694469519536142e-18  1.0000000000000000e+00  0.0000000000000000e+00
-3.4694469519536142e-18  1.0000000000000000e+00  2.9999999999999999e-01
1.6666666666666663e-02  1.0000000000000000e+00  1.4999999999999999e-01
-3.4694469519536142e-18  1.0000000000000000e+00  1.4999999999999999e-01
5.0000000000000003e-02  1.0000000000000000e+00  0.0000000000000000e+00
5.0000000000000003e-02  1.0000000000000000e+00  2.9999999999999999e-01
5.0000000000000003e-02  9.7222222222222221e-01  0.0000000000000000e+00
3.3333333333333333e-02  1.0000000000000000e+00  0.0000000000000000e+00
5.0000000000000003e-02  9.7222222222222221e-01  2.9999999999999999e-01
3.3333333333333333e-02  1.0000000000000000e+00  2.9999999999999999e-01
5.0000000000000003e-02  1.0000000000000000e+00  1.4999999999999999e-01
5.0000000000000003e-02  9.7222222222222221e-01  1.4999999999999999e-01
3.3333333333333333e-02  1.0000000000000000e+00  1.4999999999999999e-01

CELLS 0 0


CELL_TYPES 0


POINT_DATA 237

VECTORS VertexNormals float

0.0000000000000000e+00 0.0000000000000000e+00 0.0000000000000000e+00 
0.0000000000000000e+00 0.0000000000000000e+00 0.0000000000000000e+00 
0.0000000000000000e+00 0.0000000000000000e+00 0.0000000000000000e+00 
0.0000000000000000e+00 0.0000000000000000e+00 0.0000000000000000e+00 
0.0000000000000000e+00 0.0000000000000000e+00 0.0000000000000000e+00 
0.0000000000000000e+00 0.0000000000000000e+00 0.0000000000000000e+00 
0.0000000000000000e+00 0.0000000000000000e+00 0.0000000000000000e+00 
0.0000000000000000e+00 0.0000000000000000e+00 0.0000000000000000e+00 
0.0000000000000000e+00 0.0000000000000000e+00 0.0000000000000000e+00 
0.0000000000000000e+00 0.0000000000000000e+00 0.0000000000000000e+00 
0.0000000000000000e+00 0.0000000000000000e+00 0.0000000000000000e+00 
0.0000000000000000e+00 0.0000000000000000e+00 0.0000000000000000e+00 
0.0000000000000000e+00 0.0000000000000000e+00 0.0000000000000000e+00 
0.0000000000000000e+00 0.0000000000000000e+00 0.0000000000000000e+00 
0.0000000000000000e+00 0.0000000000000000e+00 0.0000000000000000e+00 
0.0000000000000000e+00 0.0000000000000000e+00 0.0000000000000000e+00 
0.0000000000000000e+00 0.0000000000000000e+00 0.0000000000000000e+00 
0.0000000000000000e+00 0.0000000000000000e+00 0.0000000000000000e+00 
0.0000000000000000e+00 0.0000000000000000e+00 0.0000000000000000e+00 
0.0000000000000000e+00 0.0000000000000000e+00 0.0000000000000000e+00 
0.0000000000000000e+00 0.0000000000000000e+00 0.0000000000000000e+00 
0.0000000000000000e+00 0.0000000000000000e+00 0.0000000000000000e+00 
0.0000000000000000e+00 0.0000000000000000e+00 0.0000000000000000e+00 
0.0000000000000000e+00 0.0000000000000000e+00 0.0000000000000000e+00 
0.0000000000000000e+00 0.0000000000000000e+00 0.0000000000000000e+00 
0.0000000000000000e+00 0.0000000000000000e+00 0.0000000000000000e+00 
0.0000000000000000e+00 0.0000000000000000e+00 0.0000000000000000e+00 
0.0000000000000000e+00 0.0000000000000000e+00 0.0000000000000000e+00 
0.0000000000000000e+00 0.0000000000000000e+00 0.0000000000000000e+00 
0.0000000000000000e+00 0.0000000000000000e+00 0.0000000000000000e+00 
0.0000000000000000e+00 0.0000000000000000e+00 0.0000000000000000e+00 
0.0000000000000000e+00 0.0000000000000000e+00 0.0000000000000000e+00 
0.0000000000000000e+00 0.0000000000000000e+00 0.0000000000000000e+00 
0.0000000000000000e+00 0.0000000000000000e+00 0.0000000000000000e+00 
0.0000000000000000e+00 0.0000000000000000e+00 0.0000000000000000e+00 
0.0000000000000000e+00 0.0000000000000000e+00 0.0000000000000000e+00 
0.0000000000000000e+00 0.0000000000000000e+00 0.0000000000000000e+00 
0.0000000000000000e+00 0.0000000000000000e+00 0.0000000000000000e+00 
0.0000000000000000e+00 0.0000000000000000e+00 0.0000000000000000e+00 
0.0000000000000000e+00 0.0000000000000000e+00 0.0000000000000000e+00 
0.0000000000000000e+00 0.0000000000000000e+00 0.0000000000000000e+00 
0.0000000000000000e+00 0.0000000000000000e+00 0.0000000000000000e+00 
0.0000000000000000e+00 0.0000000000000000e+00 0.0000000000000000e+00 
0.0000000000000000e+00 0.0000000000000000e+00 0.0000000000000000e+00 
0.0000000000000000e+00 0.0000000000000000e+00 0.0000000000000000e+00 
0.0000000000000000e+00 0.0000000000000000e+00 0.0000000000000000e+00 
0.0000000000000000e+00 0.0000000000000000e+00 0.0000000000000000e+00 
0.0000000000000000e+00 0.0000000000000000e+00 0.0000000000000000e+00 
0.0000000000000000e+00 0.0000000000000000e+00 0.0000000000000000e+00 
0.0000000000000000e+00 0.0000000000000000e+00 0.0000000000000000e+00 
0.0000000000000000e+00 0.0000000000000000e+00 0.0000000000000000e+00 
0.0000000000000000e+00 0.0000000000000000e+00 0.0000000000000000e+00 
0.0000000000000000e+00 0.0000000000000000e+00 0.0000000000000000e+00 
0.0000000000000000e+00 0.0000000000000000e+00 0.0000000000000000e+00 
0.0000000000000000e+00 0.0000000000000000e+00 0.0000000000000000e+00 
0.0000000000000000e+00 0.0000000000000000e+00 0.0000000000000000e+00 
0.0000000000000000e+00 0.0000000000000000e+00 0.0000000000000000e+00 
0.0000000000000000e+00 0.0000000000000000e+00 0.0000000000000000e+00 
0.0000000000000000e+00 0.0000000000000000e+00 0.0000000000000000e+00 
0.0000000000000000e+00 0.0000000000000000e+00 0.0000000000000000e+00 
0.0000000000000000e+00 0.0000000000000000e+00 0.0000000000000000e+00 
0.0000000000000000e+00 0.0000000000000000e+00 0.0000000000000000e+00 
0.0000000000000000e+00 0.0000000000000000e+00 0.0000000000000000e+00 
0.0000000000000000e+00 0.0000000000000000e+00 0.0000000000000000e+00 
0.0000000000000000e+00 0.0000000000000000e+00 0.0000000000000000e+00 
0.0000000000000000e+00 0.0000000000000000e+00 0.0000000000000000e+00 
0.0000000000000000e+00 0.0000000000000000e+00 0.0000000000000000e+00 
0.0000000000000000e+00 0.0000000000000000e+00 0.0000000000000000e+00 
0.0000000000000000e+00 0.0000000000000000e+00 0.0000000000000000e+00 
0.0000000000000000e+00 0.0000000000000000e+00 0.0000000000000000e+00 
0.0000000000000000e+00 0.0000000000000000e+00 0.0000000000000000e+00 
0.0000000000000000e+00 0.0000000000000000e+00 0.0000000000000000e+00 
0.0000000000000000e+00 0.0000000000000000e+00 0.0000000000000000e+00 
0.0000000000000000e+00 0.0000000000000000e+00 0.0000000000000000e+00 
0.0000000000000000e+00 0.0000000000000000e+00 0.0000000000000000e+00 
0.0000000000000000e+00 0.0000000000000000e+00 0.0000000000000000e+00 
0.0000000000000000e+00 0.0000000000000000e+00 0.0000000000000000e+00 
0.0000000000000000e+00 0.0000000000000000e+00 0.0000000000000000e+00 
0.0000000000000000e+00 0.0000000000000000e+00 0.0000000000000000e+00 
0.0000000000000000e+00 0.0000000000000000e+00 0.0000000000000000e+00 
0.0000000000000000e+00 0.0000000000000000e+00 0.0000000000000000e+00 
0.0000000000000000e+00 0.0000000000000000e+00 0.0000000000000000e+00 
0.0000000000000000e+00 0.0000000000000000e+00 0.0000000000000000e+00 
0.0000000000000000e+00 0.0000000000000000e+00 0.0000000000000000e+00 
0.0000000000000000e+00 0.0000000000000000e+00 0.0000000000000000e+00 
0.0000000000000000e+00 0.0000000000000000e+00 0.0000000000000000e+00 
0.0000000000000000e+00 0.0000000000000000e+00 0.0000000000000000e+00 
0.0000000000000000e+00 0.0000000000000000e+00 0.0000000000000000e+00 
0.0000000000000000e+00 0.0000000000000000e+00 0.0000000000000000e+00 
0.0000000000000000e+00 0.0000000000000000e+00 0.0000000000000000e+00 
0.0000000000000000e+00 0.0000000000000000e+00 0.0000000000000000e+00 
0.0000000000000000e+00 0.0000000000000000e+00 0.0000000000000000e+00 
0.0000000000000000e+00 0.0000000000000000e+00 0.0000000000000000e+00 
0.0000000000000000e+00 0.0000000000000000e+00 0.0000000000000000e+00 
0.0000000000000000e+00 0.0000000000000000e+00 0.0000000000000000e+00 
0.0000000000000000e+00 0.0000000000000000e+00 0.0000000000000000e+00 
0.0000000000000000e+00 0.0000000000000000e+00 0.0000000000000000e+00 
0.0000000000000000e+00 0.0000000000000000e+00 0.0000000000000000e+00 
0.0000000000000000e+00 0.0000000000000000e+00 0.0000000000000000e+00 
0.0000000000000000e+00 0.0000000000000000e+00 0.0000000000000000e+00 
0.0000000000000000e+00 0.0000000000000000e+00 0.0000000000000000e+00 
0.0000000000000000e+00 0.0000000000000000e+00 0.0000000000000000e+00 
0.0000000000000000e+00 0.0000000000000000e+00 0.0000000000000000e+00 
0.0000000000000000e+00 0.0000000000000000e+00 0.0000000000000000e+00 
0.0000000000000000e+00 0.0000000000000000e+00 0.0000000000000000e+00 
0.0000000000000000e+00 0.0000000000000000e+00 0.0000000000000000e+00 
0.0000000000000000e+00 0.0000000000000000e+00 0.0000000000000000e+00 
0.0000000000000000e+00 0.0000000000000000e+00 0.0000000000000000e+00 
0.0000000000000000e+00 0.0000000000000000e+00 0.0000000000000000e+00 
0.0000000000000000e+00 0.0000000000000000e+00 0.0000000000000000e+00 
0.0000000000000000e+00 0.0000000000000000e+00 0.0000000000000000e+00 
0.0000000000000000e+00 0.0000000000000000e+00 0.0000000000000000e+00 
0.0000000000000000e+00 0.0000000000000000e+00 0.0000000000000000e+00 
0.0000000000000000e+00 0.0000000000000000e+00 0.0000000000000000e+00 
0.0000000000000000e+00 0.0000000000000000e+00 0.0000000000000000e+00 
0.0000000000000000e+00 0.0000000000000000e+00 0.0000000000000000e+00 
0.0000000000000000e+00 0.0000000000000000e+00 0.0000000000000000e+00 
0.0000000000000000e+00 0.0000000000000000e+00 0.0000000000000000e+00 
0.0000000000000000e+00 0.0000000000000000e+00 0.0000000000000000e+00 
0.0000000000000000e+00 0.0000000000000000e+00 0.0000000000000000e+00 
0.0000000000000000e+00 0.0000000000000000e+00 0.0000000000000000e+00 
0.0000000000000000e+00 0.0000000000000000e+00 0.0000000000000000e+00 
0.0000000000000000e+00 0.0000000000000000e+00 0.0000000000000000e+00 
0.0000000000000000e+00 0.0000000000000000e+00 0.0000000000000000e+00 
0.0000000000000000e+00 0.0000000000000000e+00 0.0000000000000000e+00 
0.0000000000000000e+00 0.0000000000000000e+00 0.0000000000000000e+00 
0.0000000000000000e+00 0.0000000000000000e+00 0.0000000000000000e+00 
0.0000000000000000e+00 0.0000000000000000e+00 0.0000000000000000e+00 
0.0000000000000000e+00 0.0000000000000000e+00 0.0000000000000000e+00 
0.0000000000000000e+00 0.0000000000000000e+00 0.0000000000000000e+00 
0.0000000000000000e+00 0.0000000000000000e+00 0.0000000000000000e+00 
0.0000000000000000e+00 0.0000000000000000e+00 0.0000000000000000e+00 
0.0000000000000000e+00 0.0000000000000000e+00 0.0000000000000000e+00 
0.0000000000000000e+00 0.0000000000000000e+00 0.0000000000000000e+00 
0.0000000000000000e+00 0.0000000000000000e+00 0.0000000000000000e+00 
0.0000000000000000e+00 0.0000000000000000e+00 0.0000000000000000e+00 
0.0000000000000000e+00 0.0000000000000000e+00 0.0000000000000000e+00 
0.0000000000000000e+00 0.0000000000000000e+00 0.0000000000000000e+00 
0.0000000000000000e+00 0.0000000000000000e+00 0.0000000000000000e+00 
0.0000000000000000e+00 0.0000000000000000e+00 0.0000000000000000e+00 
0.0000000000000000e+00 0.0000000000000000e+00 0.0000000000000000e+00 
0.0000000000000000e+00 0.0000000000000000e+00 0.0000000000000000e+00 
0.0000000000000000e+00 0.0000000000000000e+00 0.0000000000000000e+00 
0.0000000000000000e+00 0.0000000000000000e+00 0.0000000000000000e+00 
0.0000000000000000e+00 0.0000000000000000e+00 0.0000000000000000e+00 
0.0000000000000000e+00 0.0000000000000000e+00 0.0000000000000000e+00 
0.0000000000000000e+00 0.0000000000000000e+00 0.0000000000000000e+00 
0.0000000000000000e+00 0.0000000000000000e+00 0.0000000000000000e+00 
0.0000000000000000e+00 0.0000000000000000e+00 0.0000000000000000e+00 
0.0000000000000000e+00 0.0000000000000000e+00 0.0000000000000000e+00 
0.0000000000000000e+00 0.0000000000000000e+00 0.0000000000000000e+00 
0.0000000000000000e+00 0.0000000000000000e+00 0.0000000000000000e+00 
0.0000000000000000e+00 0.0000000000000000e+00 0.0000000000000000e+00 
0.0000000000000000e+00 0.0000000000000000e+00 0.0000000000000000e+00 
0.0000000000000000e+00 0.0000000000000000e+00 0.0000000000000000e+00 
0.0000000000000000e+00 0.0000000000000000e+00 0.0000000000000000e+00 
0.0000000000000000e+00 0.0000000000000000e+00 0.0000000000000000e+00 
0.0000000000000000e+00 0.0000000000000000e+00 0.0000000000000000e+00 
0.0000000000000000e+00 0.0000000000000000e+00 0.0000000000000000e+00 
0.0000000000000000e+00 0.0000000000000000e+00 0.0000000000000000e+00 
0.0000000000000000e+00 0.0000000000000000e+00 0.0000000000000000e+00 
0.0000000000000000e+00 0.0000000000000000e+00 0.0000000000000000e+00 
0.0000000000000000e+00 0.0000000000000000e+00 0.0000000000000000e+00 
0.0000000000000000e+00 0.0000000000000000e+00 0.0000000000000000e+00 
0.0000000000000000e+00 0.0000000000000000e+00 0.0000000000000000e+00 
0.0000000000000000e+00 0.0000000000000000e+00 0.0000000000000000e+00 
0.0000000000000000e+00 0.0000000000000000e+00 0.0000000000000000e+00 
0.0000000000000000e+00 0.0000000000000000e+00 0.0000000000000000e+00 
0.0000000000000000e+00 0.0000000000000000e+00 0.0000000000000000e+00 
0.0000000000000000e+00 0.0000000000000000e+00 0.0000000000000000e+00 
0.0000000000000000e+00 0.0000000000000000e+00 0.0000000000000000e+00 
0.0000000000000000e+00 0.0000000000000000e+00 0.0000000000000000e+00 
0.0000000000000000e+00 0.0000000000000000e+00 0.0000000000000000e+00 
0.0000000000000000e+00 0.0000000000000000e+00 0.0000000000000000e+00 
0.0000000000000000e+00 0.0000000000000000e+00 0.0000000000000000e+00 
0.0000000000000000e+00 0.0000000000000000e+00 0.0000000000000000e+00 
0.0000000000000000e+00 0.0000000000000000e+00 0.0000000000000000e+00 
0.0000000000000000e+00 0.0000000000000000e+00 0.0000000000000000e+00 
0.0000000000000000e+00 0.0000000000000000e+00 0.0000000000000000e+00 
0.0000000000000000e+00 0.0000000000000000e+00 0.0000000000000000e+00 
0.0000000000000000e+00 0.0000000000000000e+00 0.0000000000000000e+00 
0.0000000000000000e+00 0.0000000000000000e+00 0.0000000000000000e+00 
0.0000000000000000e+00 0.0000000000000000e+00 0.0000000000000000e+00 
0.0000000000000000e+00 0.0000000000000000e+00 0.0000000000000000e+00 
0.0000000000000000e+00 0.0000000000000000e+00 0.0000000000000000e+00 
0.0000000000000000e+00 0.0000000000000000e+00 0.0000000000000000e+00 
0.0000000000000000e+00 0.0000000000000000e+00 0.0000000000000000e+00 
0.0000000000000000e+00 0.0000000000000000e+00 0.0000000000000000e+00 
0.0000000000000000e+00 0.0000000000000000e+00 0.0000000000000000e+00 
0.0000000000000000e+00 0.0000000000000000e+00 0.0000000000000000e+00 
0.0000000000000000e+00 0.0000000000000000e+00 0.0000000000000000e+00 
0.0000000000000000e+00 0.0000000000000000e+00 0.0000000000000000e+00 
0.0000000000000000e+00 0.0000000000000000e+00 0.0000000000000000e+00 
0.0000000000000000e+00 0.0000000000000000e+00 0.0000000000000000e+00 
0.0000000000000000e+00 0.0000000000000000e+00 0.0000000000000000e+00 
0.0000000000000000e+00 0.0000000000000000e+00 0.0000000000000000e+00 
0.0000000000000000e+00 0.0000000000000000e+00 0.0000000000000000e+00 
0.0000000000000000e+00 0.0000000000000000e+00 0.0000000000000000e+00 
0.0000000000000000e+00 0.0000000000000000e+00 0.0000000000000000e+00 
0.0000000000000000e+00 0.0000000000000000e+00 0.0000000000000000e+00 
0.0000000000000000e+00 0.0000000000000000e+00 0.0000000000000000e+00 
0.0000000000000000e+00 0.0000000000000000e+00 0.0000000000000000e+00 
0.0000000000000000e+00 0.0000000000000000e+00 0.0000000000000000e+00 
0.0000000000000000e+00 0.0000000000000000e+00 0.0000000000000000e+00 
0.0000000000000000e+00 0.0000000000000000e+00 0.0000000000000000e+00 
0.0000000000000000e+00 0.0000000000000000e+00 0.0000000000000000e+00 
0.0000000000000000e+00 0.0000000000000000e+00 0.0000000000000000e+00 
0.0000000000000000e+00 0.0000000000000000e+00 0.0000000000000000e+00 
0.0000000000000000e+00 0.0000000000000000e+00 0.0000000000000000e+00 
0.0000000000000000e+00 0.0000000000000000e+00 0.0000000000000000e+00 
0.0000000000000000e+00 0.0000000000000000e+00 0.0000000000000000e+00 
0.0000000000000000e+00 0.0000000000000000e+00 0.0000000000000000e+00 
0.0000000000000000e+00 0.0000000000000000e+00 0.0000000000000000e+00 
0.0000000000000000e+00 0.0000000000000000e+00 0.0000000000000000e+00 
0.0000000000000000e+00 0.0000000000000000e+00 0.0000000000000000e+00 
0.0000000000000000e+00 0.0000000000000000e+00 0.0000000000000000e+00 
0.0000000000000000e+00 0.0000000000000000e+00 0.0000000000000000e+00 
0.0000000000000000e+00 0.0000000000000000e+00 0.0000000000000000e+00 
0.0000000000000000e+00 0.0000000000000000e+00 0.0000000000000000e+00 
0.0000000000000000e+00 0.0000000000000000e+00 0.0000000000000000e+00 
0.0000000000000000e+00 0.0000000000000000e+00 0.0000000000000000e+00 
0.0000000000000000e+00 0.0000000000000000e+00 0.0000000000000000e+00 
0.0000000000000000e+00 0.0000000000000000e+00 0.0000000000000000e+00 
0.0000000000000000e+00 0.0000000000000000e+00 0.0000000000000000e+00 
0.0000000000000000e+00 0.0000000000000000e+00 0.0000000000000000e+00 
0.0000000000000000e+00 0.0000000000000000e+00 0.0000000000000000e+00 
0.0000000000000000e+00 0.0000000000000000e+00 0.0000000000000000e+00 
0.0000000000000000e+00 0.0000000000000000e+00 0.0000000000000000e+00 
0.0000000000000000e+00 0.0000000000000000e+00 0.0000000000000000e+00 
0.0000000000000000e+00 0.0000000000000000e+00 0.0000000000000000e+00 
0.0000000000000000e+00 0.0000000000000000e+00 0.0000000000000000e+00 
0.0000000000000000e+00 0.0000000000000000e+00 0.0000000000000000e+00 
0.0000000000000000e+00 0.0000000000000000e+00 0.0000000000000000e+00 
0.0000000000000000e+00 0.0000000000000000e+00 0.0000000000000000e+00 
0.0000000000000000e+00 0.0000000000000000e+00 0.0000000000000000e+00 
0.0000000000000000e+00 0.0000000000000000e+00 0.0000000000000000e+00 
0.0000000000000000e+00 0.0000000000000000e+00 0.0000000000000000e+00 

VECTORS Displacement float
0.0000000000000000e+00 0.0000000000000000e+00 0.0000000000000000e+00 
1.5886527115083851e-03 1.6514730149817173e-03 0.0000000000000000e+00 
0.0000000000000000e+00 0.0000000000000000e+00 0.0000000000000000e+00 
1.5886492771577782e-03 1.6514784155234343e-03 0.0000000000000000e+00 
6.9013900862989713e-04 9.1758594023683289e-04 0.0000000000000000e+00 
6.9013757467831032e-04 9.1758822579575470e-04 0.0000000000000000e+00 
0.0000000000000000e+00 0.0000000000000000e+00 0.0000000000000000e+00 
1.5886588727793203e-03 1.6514700521420042e-03 -1.6235333806789226e-10 
6.9014346890856752e-04 9.1758602049090408e-04 -3.3264886045750090e-10 
0.0000000000000000e+00 0.0000000000000000e+00 0.0000000000000000e+00 
1.4231846563189795e-03 -1.4787941472081852e-03 0.0000000000000000e+00 
0.0000000000000000e+00 0.0000000000000000e+00 0.0000000000000000e+00 
1.4231825998573075e-03 -1.4787962358897904e-03 0.0000000000000000e+00 
5.9000923189673430e-04 -8.0371810045995929e-04 0.0000000000000000e+00 
5.9000663873545419e-04 -8.0371915944983641e-04 0.0000000000000000e+00 
0.0000000000000000e+00 0.0000000000000000e+00 0.0000000000000000e+00 
1.4231870206574257e-03 -1.4787905591701785e-03 9.9469793945173498e-10 
5.9001038593631478e-04 -8.0371653833826307e-04 1.2973800776566838e-09 
4.1851564673818986e-03 2.7151508656690507e-03 0.0000000000000000e+00 
4.1851572524743445e-03 2.7151523526105139e-03 0.0000000000000000e+00 
2.7666604742239468e-03 2.2237619046870595e-03 0.0000000000000000e+00 
2.7666648959790699e-03 2.2237650609483297e-03 0.0000000000000000e+00 
4.1851598376632703e-03 2.7151489017645347e-03 1.4569417711715162e-10 
2.7666621432231113e-03 2.2237595237527062e-03 -3.9273159177510147e-10 
4.0983178826709101e-03 -2.4915900449883708e-03 0.0000000000000000e+00 
4.0983207584842337e-03 -2.4915927269562733e-03 0.0000000000000000e+00 
2.6174150853970762e-03 -2.0288983291081308e-03 0.0000000000000000e+00 
2.6174104447638856e-03 -2.0288998365774677e-03 0.0000000000000000e+00 
4.0983171713604143e-03 -2.4915861380354716e-03 -8.7868095959853290e-10 
2.6174153046910897e-03 -2.0288938087938443e-03 9.7959606106126428e-10 
7.8214018939705265e-03 3.4445796223136942e-03 0.0000000000000000e+00 
7.8213927777113727e-03 3.4445755937835996e-03 0.0000000000000000e+00 
5.9009650059051143e-03 3.1263323379338249e-03 0.0000000000000000e+00 
5.9009678128955686e-03 3.1263295092403632e-03 0.0000000000000000e+00 
7.8213944104090632e-03 3.4445811731347266e-03 1.9085464876791407e-10 
5.9009622048563247e-03 3.1263293969654815e-03 5.3572169820201045e-10 
7.6356143538140958e-03 -3.1822528057607663e-03 0.0000000000000000e+00 
7.6356161493429820e-03 -3.1822459713999559e-03 0.0000000000000000e+00 
5.7922771342418340e-03 -2.8654954673886170e-03 0.0000000000000000e+00 
5.7922822288109868e-03 -2.8654911762001833e-03 0.0000000000000000e+00 
7.6356120572448945e-03 -3.1822497331633389e-03 -1.2970562885191269e-10 
5.7922774286093080e-03 -2.8654913948094269e-03 1.1075487090121342e-11 
1.1913991856916873e-02 3.8213501352295101e-03 0.0000000000000000e+00 
1.1913987509838525e-02 3.8213544652450837e-03 0.0000000000000000e+00 
9.8269743595671387e-03 3.6616247597931494e-03 0.0000000000000000e+00 
9.8269671139126283e-03 3.6616256548926331e-03 0.0000000000000000e+00 
1.1913993526273529e-02 3.8213556166627831e-03 -5.0595864772717751e-11 
9.8269712088690335e-03 3.6616298502228735e-03 -2.2521338602412247e-11 
1.1811281407201248e-02 -3.5391632536178560e-03 0.0000000000000000e+00 
1.1811279858831257e-02 -3.5391705647366449e-03 0.0000000000000000e+00 
9.6623196015477759e-03 -3.4145059221704259e-03 0.0000000000000000e+00 
9.6623112868597476e-03 -3.4145030060495026e-03 0.0000000000000000e+00 
1.1811278672604678e-02 -3.5391663784347851e-03 1.2443628271122398e-10 
9.6623153171997520e-03 -3.4145058132136938e-03 8.7187467480840848e-10 
1.6291701918475399e-02 3.9698555483169114e-03 0.0000000000000000e+00 
1.6291706282276563e-02 3.9698541019388238e-03 0.0000000000000000e+00 
1.4085168915724523e-02 3.9243648065912457e-03 0.0000000000000000e+00 
1.4085176425621822e-02 3.9243686596138402e-03 0.0000000000000000e+00 
1.6291700555745900e-02 3.9698549396562349e-03 1.5705910891208947e-09 
1.4085173914618894e-02 3.9243668465235868e-03 1.4563951989351458e-09 
1.6128521283762069e-02 -3.5833268409818067e-03 0.0000000000000000e+00 
1.6128529856459271e-02 -3.5833277019578511e-03 0.0000000000000000e+00 
1.3966108569254792e-02 -3.5802810214491006e-03 0.0000000000000000e+00 
1.3966114755455894e-02 -3.5802847267983866e-03 0.0000000000000000e+00 
1.6128524252692400e-02 -3.5833240155591544e-03 -1.8418022461228290e-09 
1.3966112365822745e-02 -3.5802811701680336e-03 -6.6297839872314987e-10 
2.0606886641772633e-02 3.8162326013189952e-03 0.0000000000000000e+00 
2.0606881355969262e-02 3.8162329481012838e-03 0.0000000000000000e+00 
1.8495694818687562e-02 3.9297034949338523e-03 0.0000000000000000e+00 
1.8495695638293397e-02 3.9297018861072994e-03 0.0000000000000000e+00 
2.0606887290825951e-02 3.8162349050935352e-03 1.5037151020658549e-11 
1.8495695732359357e-02 3.9297051935471118e-03 1.0612122708316597e-09 
2.0415073593081548e-02 -3.3442360832438753e-03 0.0000000000000000e+00 
2.0415067870506814e-02 -3.3442360327854371e-03 0.0000000000000000e+00 
1.8311700665550719e-02 -3.5065670547590336e-03 0.0000000000000000e+00 
1.8311700715413860e-02 -3.5065624759281289e-03 0.0000000000000000e+00 
2.0415068011738428e-02 -3.3442361232990181e-03 -2.1758739583908648e-10 
1.8311698118450240e-02 -3.5065644870379119e-03 -6.1741186397085670e-10 
2.4499514713436293e-02 3.5038529183273083e-03 0.0000000000000000e+00 
2.4499510918436995e-02 3.5038566086581574e-03 0.0000000000000000e+00 
2.2592321109453313e-02 3.6725338027214791e-03 0.0000000000000000e+00 
2.2592320327809636e-02 3.6725370142819745e-03 0.0000000000000000e+00 
2.4499512587897891e-02 3.5038556443535312e-03 -2.6979455183506654e-11 
2.2592323765145111e-02 3.6725358236974802e-03 2.9966932150471110e-10 
2.4317465202862303e-02 -2.9152800196218520e-03 0.0000000000000000e+00 
2.4317462719438888e-02 -2.9152870131495708e-03 0.0000000000000000e+00 
2.2401504874458071e-02 -3.1434669097609282e-03 0.0000000000000000e+00 
2.2401496974298586e-02 -3.1434687953770992e-03 0.0000000000000000e+00 
2.4317460824651672e-02 -2.9152813785753538e-03 -2.9865163826326913e-10 
2.2401501088746629e-02 -3.1434674215512094e-03 3.5189726335760850e-10 
2.7890675426770942e-02 2.9761257938818670e-03 0.0000000000000000e+00 
2.7890680532648086e-02 2.9761323646476682e-03 0.0000000000000000e+00 
2.6297357908057945e-02 3.2639265757517426e-03 0.0000000000000000e+00 
2.6297360187971741e-02 3.2639329187611043e-03 0.0000000000000000e+00 
2.7890679255849593e-02 2.9761303754889902e-03 6.9703854877355384e-10 
2.6297358347737401e-02 3.2639320459663720e-03 6.4592463388514236e-10 
2.7734349273165117e-02 -2.2772678604999620e-03 0.0000000000000000e+00 
2.7734358606681636e-02 -2.2772751665983892e-03 0.0000000000000000e+00 
2.6129395021395007e-02 -2.6169373085795232e-03 0.0000000000000000e+00 
2.6129396299228780e-02 -2.6169430533739156e-03 0.0000000000000000e+00 
2.7734350475825419e-02 -2.2772703875970205e-03 -1.1211655281942946e-09 
2.6129394645592038e-02 -2.6169396125766656e-03 -2.7796925089143351e-10 
3.0507620007049738e-02 2.4096912870579653e-03 0.0000000000000000e+00 
3.0507623808137908e-02 2.4096871083678613e-03 0.0000000000000000e+00 
2.9274729338763697e-02 2.6915842944120129e-03 0.0000000000000000e+00 
2.9274741871049351e-02 2.6915856873857180e-03 0.0000000000000000e+00 
3.0507622369141056e-02 2.4096901120900555e-03 4.9223009570142887e-10 
2.9274736397531032e-02 2.6915859184330404e-03 1.3974744440489321e-09 
3.0359540514532053e-02 -1.6368715378429991e-03 0.0000000000000000e+00 
3.0359547200376903e-02 -1.6368674207026038e-03 0.0000000000000000e+00 
2.9124524446375664e-02 -1.9506541629172975e-03 0.0000000000000000e+00 
2.9124535433630180e-02 -1.9506534658040283e-03 0.0000000000000000e+00 
3.0359542620844657e-02 -1.6368680903204079e-03 -7.7936564900234070e-10 
2.9124528958780933e-02 -1.9506549080392235e-03 -8.6423003095564006e-10 
3.2444051134923629e-02 1.7297202058794260e-03 0.0000000000000000e+00 
3.2444043949664075e-02 1.7297210831112354e-03 0.0000000000000000e+00 
3.1588241659931571e-02 2.0888324836449259e-03 0.0000000000000000e+00 
3.1588239283578436e-02 2.0888307405723607e-03 0.0000000000000000e+00 
3.2444046640529758e-02 1.7297242391947510e-03 -1.4448077030558608e-10 
3.1588240153960473e-02 2.0888340108554289e-03 3.7294902573892183e-10 
3.2298009531517402e-02 -9.1464435277240964e-04 0.0000000000000000e+00 
3.2298004704321329e-02 -9.1464463055615855e-04 0.0000000000000000e+00 
3.1440307075243437e-02 -1.2926481593069567e-03 0.0000000000000000e+00 
3.1440303321571300e-02 -1.2926426745656504e-03 0.0000000000000000e+00 
3.2298003981356065e-02 -9.1464370243288088e-04 2.5227702556882343e-10 
3.1440303752052250e-02 -1.2926443461974393e-03 2.9032498450917327e-10 
3.3418620995516790e-02 1.0596969962422544e-03 0.0000000000000000e+00 
3.3418614730166538e-02 1.0597003805920371e-03 0.0000000000000000e+00 
3.3039443119005495e-02 1.3737272340892353e-03 0.0000000000000000e+00 
3.3039440033368138e-02 1.3737300926868964e-03 0.0000000000000000e+00 
3.3418621266611812e-02 1.0596995655373408e-03 2.5338845438193575e-10 
3.3039443934174927e-02 1.3737321528543168e-03 5.3136246931696352e-10 
3.3284163224276679e-02 -2.0841017850488917e-04 0.0000000000000000e+00 
3.3284159641775876e-02 -2.0841403775559593e-04 0.0000000000000000e+00 
3.2898142759478645e-02 -5.4059191921392556e-04 0.0000000000000000e+00 
3.2898137738332139e-02 -5.4059268977799840e-04 0.0000000000000000e+00 
3.3284159031504189e-02 -2.0841019088908846e-04 7.5925116082521703e-10 
3.2898141115229811e-02 -5.4059218223965761e-04 9.1097624886782883e-10 
3.3795350157562243e-02 5.3693971747233789e-04 0.0000000000000000e+00 
3.3795349255356544e-02 5.3694799512390718e-04 0.0000000000000000e+00 
3.3658357532170308e-02 7.9610686292635037e-04 0.0000000000000000e+00 
3.3658355285373885e-02 7.9611307767263177e-04 0.0000000000000000e+00 
3.3795350463923263e-02 5.3694555931305859e-04 5.3122187558025834e-10 
3.3658357393864059e-02 7.9611101552381699e-04 7.8257671997562968e-10 
3.3674395957239249e-02 3.3012023185181134e-04 0.0000000000000000e+00 
3.3674397216497350e-02 3.3011499015116619e-04 0.0000000000000000e+00 
3.3532032803781274e-02 6.9780237616881330e-05 0.0000000000000000e+00 
3.3532029790801748e-02 6.9777244015011626e-05 0.0000000000000000e+00 
3.3674391383364165e-02 3.3011836547272176e-04 -7.4733660969023479e-11 
3.3532028547414702e-02 6.9778923879585677e-05 7.8498717057124514e-10 
3.3668001199454213e-02 -7.8207261129565757e-05 0.0000000000000000e+00 
3.3668007425375623e-02 -7.8207116450583922e-05 0.0000000000000000e+00 
3.3812110691661026e-02 2.4587592116274970e-04 0.0000000000000000e+00 
3.3812119701259948e-02 2.4588194039670179e-04 0.0000000000000000e+00 
3.3668005274842240e-02 -7.8204957538340080e-05 1.1706227884175951e-10 
3.3812117097578691e-02 2.4588156952754002e-04 9.4285224651982906e-10 
3.3560177738492403e-02 8.8900643497660044e-04 0.0000000000000000e+00 
3.3560183071518902e-02 8.8900745632785824e-04 0.0000000000000000e+00 
3.3695478670749693e-02 5.9997056774908019e-04 0.0000000000000000e+00 
3.3695483581482312e-02 5.9996939826700000e-04 0.0000000000000000e+00 
3.3560177330956141e-02 8.8900713897806976e-04 -8.5195526810973291e-10 
3.3695478335566638e-02 5.9996982123287337e-04 -4.0888336362725142e-10 
3.2756685143726448e-02 -7.1798183578559885e-04 0.0000000000000000e+00 
3.2756681486183228e-02 -7.1798106247629109e-04 0.0000000000000000e+00 
3.3317646166390755e-02 -4.1525454637195673e-04 0.0000000000000000e+00 
3.3317647528390282e-02 -4.1525484718341673e-04 0.0000000000000000e+00 
3.2756682853270908e-02 -7.1798165077690624e-04 -2.7478339264792158e-10 
3.3317649130435549e-02 -4.1525359600012054e-04 2.5563729744327590e-10 
3.2667388487090866e-02 1.5171463757780255e-03 0.0000000000000000e+00 
3.2667388528671557e-02 1.5171433792747109e-03 0.0000000000000000e+00 
3.3218495146971991e-02 1.2034803721544674e-03 0.0000000000000000e+00 
3.3218494611542103e-02 1.2034817101601925e-03 0.0000000000000000e+00 
3.2667386221531189e-02 1.5171453552483667e-03 -5.1555446663843105e-10 
3.3218493500331972e-02 1.2034803500602194e-03 -2.3915121800852427e-10 
3.1229885280324367e-02 -1.2460148548909080e-03 0.0000000000000000e+00 
3.1229889863574580e-02 -1.2460101355533369e-03 0.0000000000000000e+00 
3.2049094362051667e-02 -9.7513118280316297e-04 0.0000000000000000e+00 
3.2049094892131778e-02 -9.7512752378404305e-04 0.0000000000000000e+00 
3.1229887997112463e-02 -1.2460133907568724e-03 -1.2107238613173611e-10 
3.2049094638437338e-02 -9.7512912263473660e-04 -1.2111106959855913e-10 
3.1127485916646026e-02 2.0903815275981276e-03 0.0000000000000000e+00 
3.1127495422948369e-02 2.0903758735003265e-03 0.0000000000000000e+00 
3.1965494371660547e-02 1.8089860133015589e-03 0.0000000000000000e+00 
3.1965496677709294e-02 1.8089810941650717e-03 0.0000000000000000e+00 
3.1127492130086074e-02 2.0903790878513940e-03 -1.2321070628797897e-09 
3.1965495306989916e-02 1.8089824400727428e-03 -7.0547022429558779e-10 
2.9083686497960094e-02 -1.8793619950201624e-03 0.0000000000000000e+00 
2.9083692970955269e-02 -1.8793675825272682e-03 0.0000000000000000e+00 
3.0259748398730711e-02 -1.5613680403665764e-03 0.0000000000000000e+00 
3.0259760176252221e-02 -1.5613675999993585e-03 0.0000000000000000e+00 
2.9083688278166851e-02 -1.8793648403405494e-03 2.6539232334163415e-10 
3.0259753188364075e-02 -1.5613684594149907e-03 5.9812763059600904e-10 
2.8970238303175258e-02 2.6278210704114265e-03 0.0000000000000000e+00 
2.8970245129614706e-02 2.6278200064548639e-03 0.0000000000000000e+00 
3.0125307924278560e-02 2.3608353386733545e-03 0.0000000000000000e+00 
3.0125315711973778e-02 2.3608348926400036e-03 0.0000000000000000e+00 
2.8970241629317765e-02 2.6278247815512243e-03 -2.6148153996348044e-10 
3.0125314262418643e-02 2.3608365946147050e-03 -6.5551463099399119e-10 
2.6130837614757950e-02 -2.3448192106643034e-03 0.0000000000000000e+00 
2.6130838894635102e-02 -2.3448212569644514e-03 0.0000000000000000e+00 
2.7683351815971455e-02 -2.1551460032274146e-03 0.0000000000000000e+00 
2.7683352657789571e-02 -2.1551491077134669e-03 0.0000000000000000e+00 
2.6130834771714323e-02 -2.3448187594197656e-03 3.5968424993368416e-10 
2.7683349587377594e-02 -2.1551465907888082e-03 -6.5442163417459932e-11 
2.6080588606365751e-02 3.1741858789796342e-03 0.0000000000000000e+00 
2.6080586691000329e-02 3.1741783545961989e-03 0.0000000000000000e+00 
2.7640961092904301e-02 2.9137657965355667e-03 0.0000000000000000e+00 
2.7640960973926817e-02 2.9137657429176731e-03 0.0000000000000000e+00 
2.6080586703952885e-02 3.1741833156783586e-03 -9.9120331867704719e-10 
2.7640958686885406e-02 2.9137691757477940e-03 -5.2272821015918926e-10 
2.2945357168547474e-02 -2.3976666945812854e-03 0.0000000000000000e+00 
2.2885033960499387e-02 -5.0392700736896952e-04 0.0000000000000000e+00 
2.2945362922580946e-02 -2.3976679977606215e-03 0.0000000000000000e+00 
2.2885042317145238e-02 -5.0392338097368216e-04 0.0000000000000000e+00 
2.4532636379313910e-02 -2.4039171872359288e-03 0.0000000000000000e+00 
2.2925024458600604e-02 -1.4493754456250106e-03 0.0000000000000000e+00 
2.4532640393139755e-02 -2.4039187100488688e-03 0.0000000000000000e+00 
2.2925030422607615e-02 -1.4493744861236208e-03 0.0000000000000000e+00 
2.2945352722633240e-02 -2.3976638888900345e-03 1.4822565929827485e-09 
2.2885036303675308e-02 -5.0392620921981706e-04 7.9352665566447412e-10 
2.4532633388392698e-02 -2.4039140148387813e-03 8.7913206924272604e-10 
2.2925023389323469e-02 -1.4493729691505359e-03 7.8566389326216471e-10 
2.2770620404911131e-02 1.3722431027882792e-03 0.0000000000000000e+00 
2.2770635123627404e-02 1.3722417999197088e-03 0.0000000000000000e+00 
2.2834746862078169e-02 4.2850834552111484e-04 0.0000000000000000e+00 
2.2834758196673188e-02 4.2851157109964405e-04 0.0000000000000000e+00 
2.2770626540008353e-02 1.3722437147958436e-03 -9.3925063413495470e-11 
2.2834750934462453e-02 4.2850981386730524e-04 4.2178106432588167e-10 
2.2690352987764562e-02 3.3751471498597260e-03 0.0000000000000000e+00 
2.2690372608114968e-02 3.3751300398730194e-03 0.0000000000000000e+00 
2.4388485714463552e-02 3.3241133826440311e-03 0.0000000000000000e+00 
2.2712859738861252e-02 2.3604349510954852e-03 0.0000000000000000e+00 
2.4388492482676855e-02 3.3240998959118682e-03 0.0000000000000000e+00 
2.2712877876067357e-02 2.3604269154976587e-03 0.0000000000000000e+00 
2.2690365632272169e-02 3.3751393700317562e-03 -7.4381031831625734e-10 
2.4388489542539471e-02 3.3241067193370186e-03 -1.3637833953790606e-09 
2.2712870082104937e-02 2.3604309306025908e-03 -7.7996693044054732e-10 

VECTORS Stress float
1.1074755327681908e+02 -4.1496071090550117e+00 -5.6212947263615050e-14 
1.1024245345562576e+02 -3.7102117291880177e+00 -2.5158605207742400e-14 
1.1074755327681908e+02 -4.1496071090550117e+00 -5.6212947263615050e-14 
1.1024245345562576e+02 -3.7102117291880177e+00 -2.5158605207742400e-14 
1.1039634344358274e+02 -3.2888422055506226e+00 -2.1399701942258568e-14 
1.1039634344358274e+02 -3.2888422055506226e+00 -2.1399701942258568e-14 
1.1074755327681908e+02 -4.1496071090550117e+00 -5.6212947263615050e-14 
1.1024245345562576e+02 -3.7102117291880177e+00 -2.5158605207742400e-14 
1.1039634344358274e+02 -3.2888422055506226e+00 -2.1399701942258568e-14 
9.2491169095420844e+01 -3.8915111491247103e+00 -8.3271829442507776e-13 
8.9917718067321857e+01 -2.9718452659667491e+00 -9.1338842204049308e-13 
9.2491169095420844e+01 -3.8915111491247103e+00 -8.3271829442507776e-13 
8.9917718067321857e+01 -2.9718452659667491e+00 -9.1338842204049308e-13 
9.0542707274536042e+01 -2.6589692382838166e+00 -8.7855530448613283e-13 
9.0542707274536042e+01 -2.6589692382838166e+00 -8.7855530448613283e-13 
9.2491169095420844e+01 -3.8915111491247103e+00 -8.3271829442507776e-13 
8.9917718067321857e+01 -2.9718452659667491e+00 -9.1338842204049308e-13 
9.0542707274536042e+01 -2.6589692382838166e+00 -8.7855530448613283e-13 
1.1031092229854221e+02 -6.1128120444875549e+00 -9.1939380878920998e-15 
1.1031092229854221e+02 -6.1128120444875549e+00 -9.1939380878920998e-15 
1.1029635652016418e+02 -4.9030112621744593e+00 -2.9415119289109208e-14 
1.1029635652016418e+02 -4.9030112621744593e+00 -2.9415119289109208e-14 
1.1031092229854221e+02 -6.1128120444875549e+00 -9.1939380878920998e-15 
1.1029635652016418e+02 -4.9030112621744593e+00 -2.9415119289109208e-14 
9.0202667373150689e+01 -5.2558776345847491e+00 -7.2973451583704424e-13 
9.0202667373150689e+01 -5.2558776345847491e+00 -7.2973451583704424e-13 
9.0008566216169356e+01 -4.1523356456771126e+00 -9.0109175274829905e-13 
9.0008566216169356e+01 -4.1523356456771126e+00 -9.0109175274829905e-13 
9.0202667373150689e+01 -5.2558776345847491e+00 -7.2973451583704424e-13 
9.0008566216169356e+01 -4.1523356456771126e+00 -9.0109175274829905e-13 
1.0991345074102037e+02 -7.6334536634631149e+00 -6.0967228047339339e-14 
1.0991345074102037e+02 -7.6334536634631149e+00 -6.0967228047339339e-14 
1.1012057121366342e+02 -6.9763463017497997e+00 1.0569242504270230e-14 
1.1012057121366342e+02 -6.9763463017497997e+00 1.0569242504270230e-14 
1.0991345074102037e+02 -7.6334536634631149e+00 -6.0967228047339339e-14 
1.1012057121366342e+02 -6.9763463017497997e+00 1.0569242504270230e-14 
9.0381373951714977e+01 -6.3186543795663965e+00 1.6403268840631489e-15 
9.0381373951714977e+01 -6.3186543795663965e+00 1.6403268840631489e-15 
9.0301537961135182e+01 -5.8868812067898943e+00 -3.7813241795564500e-13 
9.0301537961135182e+01 -5.8868812067898943e+00 -3.7813241795564500e-13 
9.0381373951714977e+01 -6.3186543795663965e+00 1.6403268840631489e-15 
9.0301537961135182e+01 -5.8868812067898943e+00 -3.7813241795564500e-13 
1.0922028497221845e+02 -8.2961906881764662e+00 -7.7297398119397160e-13 
1.0922028497221845e+02 -8.2961906881764662e+00 -7.7297398119397160e-13 
1.0956044794308991e+02 -8.0396490815892321e+00 -3.8685405447451763e-13 
1.0956044794308991e+02 -8.0396490815892321e+00 -3.8685405447451763e-13 
1.0922028497221845e+02 -8.2961906881764662e+00 -7.7297398119397160e-13 
1.0956044794308991e+02 -8.0396490815892321e+00 -3.8685405447451763e-13 
9.1040601769849218e+01 -6.9601067270591557e+00 6.5582430321734321e-13 
9.1040601769849218e+01 -6.9601067270591557e+00 6.5582430321734321e-13 
9.0685080406689849e+01 -6.6960193458626236e+00 3.5387340138329794e-13 
9.0685080406689849e+01 -6.6960193458626236e+00 3.5387340138329794e-13 
9.1040601769849218e+01 -6.9601067270591557e+00 6.5582430321734321e-13 
9.0685080406689849e+01 -6.6960193458626236e+00 3.5387340138329794e-13 
1.0825660542518744e+02 -8.4504322330835748e+00 -9.5443520374689005e-13 
1.0825660542518744e+02 -8.4504322330835748e+00 -9.5443520374689005e-13 
1.0877113444591896e+02 -8.4331274700430185e+00 -9.6590386846081492e-13 
1.0877113444591896e+02 -8.4331274700430185e+00 -9.6590386846081492e-13 
1.0825660542518744e+02 -8.4504322330835748e+00 -9.5443520374689005e-13 
1.0877113444591896e+02 -8.4331274700430185e+00 -9.6590386846081492e-13 
9.2207257917117204e+01 -7.1316114825317527e+00 8.7060446235136729e-13 
9.2207257917117204e+01 -7.1316114825317527e+00 8.7060446235136729e-13 
9.1560156075593113e+01 -7.1081462849438140e+00 8.2429829010129426e-13 
9.1560156075593113e+01 -7.1081462849438140e+00 8.2429829010129426e-13 
9.2207257917117204e+01 -7.1316114825317527e+00 8.7060446235136729e-13 
9.1560156075593113e+01 -7.1081462849438140e+00 8.2429829010129426e-13 
1.0708876927921028e+02 -7.9318071146954026e+00 -3.1631798511196315e-13 
1.0708876927921028e+02 -7.9318071146954026e+00 -3.1631798511196315e-13 
1.0773133096868787e+02 -8.3026225372095723e+00 -7.6323935536423388e-13 
1.0773133096868787e+02 -8.3026225372095723e+00 -7.6323935536423388e-13 
1.0708876927921028e+02 -7.9318071146954026e+00 -3.1631798511196315e-13 
1.0773133096868787e+02 -8.3026225372095723e+00 -7.6323935536423388e-13 
9.3920034820445835e+01 -6.8418355037206311e+00 3.9453452608081580e-13 
9.3920034820445835e+01 -6.8418355037206311e+00 3.9453452608081580e-13 
9.2951516009751231e+01 -7.0328858002162633e+00 7.6121538888397659e-13 
9.2951516009751231e+01 -7.0328858002162633e+00 7.6121538888397659e-13 
9.3920034820445835e+01 -6.8418355037206311e+00 3.9453452608081580e-13 
9.2951516009751231e+01 -7.0328858002162633e+00 7.6121538888397659e-13 
1.0571466625241737e+02 -6.8754077036705894e+00 2.0247467063459664e-13 
1.0571466625241737e+02 -6.8754077036705894e+00 2.0247467063459664e-13 
1.0646462786987877e+02 -7.4436216886351758e+00 1.0771073157489535e-13 
1.0646462786987877e+02 -7.4436216886351758e+00 1.0771073157489535e-13 
1.0571466625241737e+02 -6.8754077036705894e+00 2.0247467063459664e-13 
1.0646462786987877e+02 -7.4436216886351758e+00 1.0771073157489535e-13 
9.6185926758534151e+01 -6.1580732604629702e+00 6.7796980970570319e-14 
9.6185926758534151e+01 -6.1580732604629702e+00 6.7796980970570319e-14 
9.4948479459040300e+01 -6.5367526760433066e+00 5.7788599686845797e-14 
9.4948479459040300e+01 -6.5367526760433066e+00 5.7788599686845797e-14 
9.6185926758534151e+01 -6.1580732604629702e+00 6.7796980970570319e-14 
9.4948479459040300e+01 -6.5367526760433066e+00 5.7788599686845797e-14 
1.0406659767086921e+02 -5.5964411261757050e+00 -1.5721447929212999e-14 
1.0406659767086921e+02 -5.5964411261757050e+00 -1.5721447929212999e-14 
1.0492503661882483e+02 -6.2527592360183917e+00 1.1064047099135744e-13 
1.0492503661882483e+02 -6.2527592360183917e+00 1.1064047099135744e-13 
1.0406659767086921e+02 -5.5964411261757050e+00 -1.5721447929212999e-14 
1.0492503661882483e+02 -6.2527592360183917e+00 1.1064047099135744e-13 
9.8929499720198692e+01 -5.2017545613339280e+00 4.3330646250485875e-13 
9.8929499720198692e+01 -5.2017545613339280e+00 4.3330646250485875e-13 
9.7509648792045482e+01 -5.7034461742250642e+00 2.5510229488768950e-13 
9.7509648792045482e+01 -5.7034461742250642e+00 2.5510229488768950e-13 
9.8929499720198692e+01 -5.2017545613339280e+00 4.3330646250485875e-13 
9.7509648792045482e+01 -5.7034461742250642e+00 2.5510229488768950e-13 
1.0207236095986809e+02 -4.1538775780886681e+00 -2.8274536899695515e-13 
1.0207236095986809e+02 -4.1538775780886681e+00 -2.8274536899695515e-13 
1.0309298087597517e+02 -4.9064186534992587e+00 -1.4359078463792544e-13 
1.0309298087597517e+02 -4.9064186534992587e+00 -1.4359078463792544e-13 
1.0207236095986809e+02 -4.1538775780886681e+00 -2.8274536899695515e-13 
1.0309298087597517e+02 -4.9064186534992587e+00 -1.4359078463792544e-13 
1.0199895609969371e+02 -4.0278965574871108e+00 5.3420622489344501e-13 
1.0199895609969371e+02 -4.0278965574871108e+00 5.3420622489344501e-13 
1.0046589487486244e+02 -4.6613667670535506e+00 5.3743374434424042e-13 
1.0046589487486244e+02 -4.6613667670535506e+00 5.3743374434424042e-13 
1.0199895609969371e+02 -4.0278965574871108e+00 5.3420622489344501e-13 
1.0046589487486244e+02 -4.6613667670535506e+00 5.3743374434424042e-13 
9.9656233376129421e+01 -2.4490190391884425e+00 -4.8477862805517250e-13 
9.9656233376129421e+01 -2.4490190391884425e+00 -4.8477862805517250e-13 
1.0091487673013899e+02 -3.3096428489434402e+00 -3.9509477308293826e-13 
1.0091487673013899e+02 -3.3096428489434402e+00 -3.9509477308293826e-13 
9.9656233376129421e+01 -2.4490190391884425e+00 -4.8477862805517250e-13 
1.0091487673013899e+02 -3.3096428489434402e+00 -3.9509477308293826e-13 
1.0515280887312474e+02 -2.5051616074279082e+00 5.4821143169478766e-14 
1.0515280887312474e+02 -2.5051616074279082e+00 5.4821143169478766e-14 
1.0360811053691987e+02 -3.2926503770645468e+00 3.1984084315898254e-13 
1.0360811053691987e+02 -3.2926503770645468e+00 3.1984084315898254e-13 
1.0515280887312474e+02 -2.5051616074279082e+00 5.4821143169478766e-14 
1.0360811053691987e+02 -3.2926503770645468e+00 3.1984084315898254e-13 
9.6662811407451045e+01 -1.0167379991389680e+00 -4.5788401451595180e-13 
9.6662811407451045e+01 -1.0167379991389680e+00 -4.5788401451595180e-13 
9.8249494635639167e+01 -1.6788255384835793e+00 -5.1157307073914194e-13 
9.8249494635639167e+01 -1.6788255384835793e+00 -5.1157307073914194e-13 
9.6662811407451045e+01 -1.0167379991389680e+00 -4.5788401451595180e-13 
9.8249494635639167e+01 -1.6788255384835793e+00 -5.1157307073914194e-13 
1.0795562108629338e+02 -1.1273199442816804e+00 -2.1509653917476183e-13 
1.0795562108629338e+02 -1.1273199442816804e+00 -2.1509653917476183e-13 
1.0661707151464498e+02 -1.7790538775834648e+00 -1.3183493805593755e-13 
1.0661707151464498e+02 -1.7790538775834648e+00 -1.3183493805593755e-13 
1.0795562108629338e+02 -1.1273199442816804e+00 -2.1509653917476183e-13 
1.0661707151464498e+02 -1.7790538775834648e+00 -1.3183493805593755e-13 
9.2877619569279886e+01 -4.3921818921262457e-02 -7.6308368251049918e-14 
9.2877619569279886e+01 -4.3921818921262457e-02 -7.6308368251049918e-14 
9.4882309934025670e+01 -4.6522210702278244e-01 -3.1467875525403286e-13 
9.4882309934025670e+01 -4.6522210702278244e-01 -3.1467875525403286e-13 
9.2877619569279886e+01 -4.3921818921262457e-02 -7.6308368251049918e-14 
9.4882309934025670e+01 -4.6522210702278244e-01 -3.1467875525403286e-13 
1.1007630410932779e+02 -9.8530715622246134e-02 -1.2665915521537669e-13 
1.1007630410932779e+02 -9.8530715622246134e-02 -1.2665915521537669e-13 
1.0911209908941009e+02 -5.5444996094138332e-01 -2.1148781218585463e-13 
1.0911209908941009e+02 -5.5444996094138332e-01 -2.1148781218585463e-13 
1.1007630410932779e+02 -9.8530715622246134e-02 -1.2665915521537669e-13 
1.0911209908941009e+02 -5.5444996094138332e-01 -2.1148781218585463e-13 
8.8140501566288094e+01 1.0488704073391091e+00 2.8606013063018400e-13 
8.8140501566288094e+01 1.0488704073391091e+00 2.8606013063018400e-13 
9.0621011776211162e+01 4.2035386298084632e-01 1.6186723098975377e-13 
9.0621011776211162e+01 4.2035386298084632e-01 1.6186723098975377e-13 
8.8140501566288094e+01 1.0488704073391091e+00 2.8606013063018400e-13 
9.0621011776211162e+01 4.2035386298084632e-01 1.6186723098975377e-13 
1.1133131032096730e+02 1.1814410603305987e+00 5.7332388794348922e-14 
1.1133131032096730e+02 1.1814410603305987e+00 5.7332388794348922e-14 
1.1081381108157211e+02 4.4501844304636506e-01 -2.3143867044376450e-14 
1.1081381108157211e+02 4.4501844304636506e-01 -2.3143867044376450e-14 
1.1133131032096730e+02 1.1814410603305987e+00 5.7332388794348922e-14 
1.1081381108157211e+02 4.4501844304636506e-01 -2.3143867044376450e-14 
8.2094559318310985e+01 1.8926627437260777e+00 2.2474688004340788e-13 
8.2094559318310985e+01 1.8926627437260777e+00 2.2474688004340788e-13 
8.5322996590696221e+01 1.7002525131924813e+00 3.1064064507159485e-13 
8.5322996590696221e+01 1.7002525131924813e+00 3.1064064507159485e-13 
8.2094559318310985e+01 1.8926627437260777e+00 2.2474688004340788e-13 
8.5322996590696221e+01 1.7002525131924813e+00 3.1064064507159485e-13 
1.1177509184483984e+02 2.5099169178085958e+00 1.1029936119102150e-13 
1.1177509184483984e+02 2.5099169178085958e+00 1.1029936119102150e-13 
1.1161103327364140e+02 2.0083656743445317e+00 9.9736012051875971e-14 
1.1161103327364140e+02 2.0083656743445317e+00 9.9736012051875971e-14 
1.1177509184483984e+02 2.5099169178085958e+00 1.1029936119102150e-13 
1.1161103327364140e+02 2.0083656743445317e+00 9.9736012051875971e-14 
7.3553800028840897e+01 2.6772193984954811e+00 -6.2124471781548380e-14 
7.3553800028840897e+01 2.6772193984954811e+00 -6.2124471781548380e-14 
7.8293720950139914e+01 1.7463697490488812e+00 5.2232257727760952e-14 
7.8293720950139914e+01 1.7463697490488812e+00 5.2232257727760952e-14 
7.3553800028840897e+01 2.6772193984954811e+00 -6.2124471781548380e-14 
7.8293720950140141e+01 1.7463697490493360e+00 5.2232257727754489e-14 
1.1065067603654416e+02 3.8300474641170013e+00 1.2424650000911979e-13 
1.1065067603654416e+02 3.8300474641170013e+00 1.2424650000911979e-13 
1.1169383344156631e+02 2.7596624178404454e+00 1.0980599704768236e-13 
1.1169383344156631e+02 2.7596624178404454e+00 1.0980599704768236e-13 
1.1065067603654416e+02 3.8300474641170013e+00 1.2424650000911979e-13 
1.1169383344156631e+02 2.7596624178402180e+00 1.0980599704769246e-13 
6.0357208162407574e+01 6.4863228319956079e+00 2.0523014037736311e-13 
6.0357208162407574e+01 6.4863228319956079e+00 2.0523014037736311e-13 
6.7509933132412129e+01 6.1441640362835415e+00 3.1795504257154042e-14 
6.7509933132412129e+01 6.1441640362835415e+00 3.1795504257154042e-14 
6.0357208162407574e+01 6.4863228319956079e+00 2.0523014037736311e-13 
6.7509933132412129e+01 6.1441640362835415e+00 3.1795504257154042e-14 
1.0638943300251236e+02 7.3042838213734740e+00 2.4078235017217802e-13 
1.0638943300251236e+02 7.3042838213734740e+00 2.4078235017217802e-13 
1.0794887054861408e+02 6.6310090696316593e+00 1.7290551493057062e-13 
1.0794887054861408e+02 6.6310090696316593e+00 1.7290551493057062e-13 
1.0638943300251236e+02 7.3042838213734740e+00 2.4078235017217802e-13 
1.0794887054861408e+02 6.6310090696316593e+00 1.7290551493057062e-13 
4.0425382392266329e+01 -2.3982677021416521e+01 4.6458484661723357e-13 
4.0425382392266329e+01 -2.3982677021416521e+01 4.6458484661723357e-13 
5.2539760859122111e+01 -1.0226400466041127e+01 3.7088929428152437e-13 
5.2539760859122111e+01 -1.0226400466041127e+01 3.7088929428152437e-13 
4.0425382392266329e+01 -2.3982677021416521e+01 4.6458484661723357e-13 
5.2539760859122339e+01 -1.0226400466041468e+01 3.7088929428153164e-13 
1.1947408291062095e+02 -1.1336894997232690e+01 3.1019525282867589e-13 
1.1947408291062095e+02 -1.1336894997232690e+01 3.1019525282867589e-13 
1.1386441905271147e+02 -3.4583691916283783e+00 2.9962284644939424e-13 
1.1386441905271147e+02 -3.4583691916283783e+00 2.9962284644939424e-13 
1.1947408291062095e+02 -1.1336894997232690e+01 3.1019525282867589e-13 
1.1386441905271150e+02 -3.4583691916285488e+00 2.9962284644938722e-13 
-1.2631320616127141e+01 1.4747291782803120e+02 7.0559579548645197e-14 
-8.0335269063302803e+00 1.6286519785006641e+02 -8.4428656295303594e-15 
-1.2631320616127141e+01 1.4747291782803120e+02 7.0559579548645197e-14 
-8.0335269063302803e+00 1.6286519785006641e+02 -8.4428656295303594e-15 
1.9003337604636272e+01 2.1397110276227522e+01 3.7906603004141264e-13 
-9.3015389175818655e+00 1.6804411909107722e+02 5.6758737840554793e-17 
1.9003337604636272e+01 2.1397110276227522e+01 3.7906603004141264e-13 
-9.3015389175818655e+00 1.6804411909107722e+02 5.6758737840554793e-17 
-1.2631320616127141e+01 1.4747291782803120e+02 7.0559579548645197e-14 
-8.0335269063302803e+00 1.6286519785006641e+02 -8.4428656295303594e-15 
1.9003337604636272e+01 2.1397110276227522e+01 3.7906603004141264e-13 
-9.3015389175818655e+00 1.6804411909107722e+02 5.6758737840554793e-17 
-1.0313509095946301e+01 1.3448196458221787e+02 -1.5278487070254375e-15 
-1.0313509095946301e+01 1.3448196458221787e+02 -1.5278487070254375e-15 
-8.2354916821122970e+00 1.4853483319375295e+02 8.0091510406865080e-17 
-8.2354916821122970e+00 1.4853483319375295e+02 8.0091510406865080e-17 
-1.0313509095946301e+01 1.3448196458221787e+02 -1.5278487070254375e-15 
-8.2354916821122970e+00 1.4853483319375295e+02 8.0091510406865080e-17 
1.2822910023368649e+01 1.0018785464464992e+02 2.1865325291774041e-14 
1.2822910023368649e+01 1.0018785464464992e+02 2.1865325291774041e-14 
9.0188278272205238e+01 1.8326359002136996e+01 2.2103600029043581e-13 
-7.1949783372074307e+00 1.1930696746485734e+02 -1.2810596229809890e-24 
9.0188278272205238e+01 1.8326359002136996e+01 2.2103600029043581e-13 
-7.1949783372074307e+00 1.1930696746485734e+02 -1.2810596229809890e-24 
1.2822910023368649e+01 1.0018785464464992e+02 2.1865325291774041e-14 
9.0188278272205238e+01 1.8326359002136996e+01 2.2103600029043581e-13 
-7.1949783372074307e+00 1.1930696746485734e+02 -1.2818674165479353e-24 

