# vtk DataFile Version 2.0

ASCII

DATASET UNSTRUCTURED_GRID

POINTS 237 float 

-5.0000000000000003e-02  0.0000000000000000e+00  0.0000000000000000e+00
-5.0000000000000003e-02  5.5555555555555552e-02  0.0000000000000000e+00
-5.0000000000000003e-02  0.0000000000000000e+00  2.9999999999999999e-01
-5.0000000000000003e-02  5.5555555555555552e-02  2.9999999999999999e-01
-5.0000000000000003e-02  2.7777777777777776e-02  0.0000000000000000e+00
-5.0000000000000003e-02  2.7777777777777776e-02  2.9999999999999999e-01
-5.0000000000000003e-02  0.0000000000000000e+00  1.4999999999999999e-01
-5.0000000000000003e-02  5.5555555555555552e-02  1.4999999999999999e-01
-5.0000000000000003e-02  2.7777777777777776e-02  1.4999999999999999e-01
5.0000000000000003e-02  0.0000000000000000e+00  0.0000000000000000e+00
5.0000000000000003e-02  5.5555555555555552e-02  0.0000000000000000e+00
5.0000000000000003e-02  0.0000000000000000e+00  2.9999999999999999e-01
5.0000000000000003e-02  5.5555555555555552e-02  2.9999999999999999e-01
5.0000000000000003e-02  2.7777777777777776e-02  0.0000000000000000e+00
5.0000000000000003e-02  2.7777777777777776e-02  2.9999999999999999e-01
5.0000000000000003e-02  0.0000000000000000e+00  1.4999999999999999e-01
5.0000000000000003e-02  5.5555555555555552e-02  1.4999999999999999e-01
5.0000000000000003e-02  2.7777777777777776e-02  1.4999999999999999e-01
-5.0000000000000003e-02  1.1111111111111110e-01  0.0000000000000000e+00
-5.0000000000000003e-02  1.1111111111111110e-01  2.9999999999999999e-01
-5.0000000000000003e-02  8.3333333333333329e-02  0.0000000000000000e+00
-5.0000000000000003e-02  8.3333333333333329e-02  2.9999999999999999e-01
-5.0000000000000003e-02  1.1111111111111110e-01  1.4999999999999999e-01
-5.0000000000000003e-02  8.3333333333333329e-02  1.4999999999999999e-01
5.0000000000000003e-02  1.1111111111111110e-01  0.0000000000000000e+00
5.0000000000000003e-02  1.1111111111111110e-01  2.9999999999999999e-01
5.0000000000000003e-02  8.3333333333333329e-02  0.0000000000000000e+00
5.0000000000000003e-02  8.3333333333333329e-02  2.9999999999999999e-01
5.0000000000000003e-02  1.1111111111111110e-01  1.4999999999999999e-01
5.0000000000000003e-02  8.3333333333333329e-02  1.4999999999999999e-01
-5.0000000000000003e-02  1.6666666666666666e-01  0.0000000000000000e+00
-5.0000000000000003e-02  1.6666666666666666e-01  2.9999999999999999e-01
-5.0000000000000003e-02  1.3888888888888890e-01  0.0000000000000000e+00
-5.0000000000000003e-02  1.3888888888888890e-01  2.9999999999999999e-01
-5.0000000000000003e-02  1.6666666666666666e-01  1.4999999999999999e-01
-5.0000000000000003e-02  1.3888888888888890e-01  1.4999999999999999e-01
5.0000000000000003e-02  1.6666666666666666e-01  0.0000000000000000e+00
5.0000000000000003e-02  1.6666666666666666e-01  2.9999999999999999e-01
5.0000000000000003e-02  1.3888888888888890e-01  0.0000000000000000e+00
5.0000000000000003e-02  1.3888888888888890e-01  2.9999999999999999e-01
5.0000000000000003e-02  1.6666666666666666e-01  1.4999999999999999e-01
5.0000000000000003e-02  1.3888888888888890e-01  1.4999999999999999e-01
-5.0000000000000003e-02  2.2222222222222221e-01  0.0000000000000000e+00
-5.0000000000000003e-02  2.2222222222222221e-01  2.9999999999999999e-01
-5.0000000000000003e-02  1.9444444444444442e-01  0.0000000000000000e+00
-5.0000000000000003e-02  1.9444444444444442e-01  2.9999999999999999e-01
-5.0000000000000003e-02  2.2222222222222221e-01  1.4999999999999999e-01
-5.0000000000000003e-02  1.9444444444444442e-01  1.4999999999999999e-01
5.0000000000000003e-02  2.2222222222222221e-01  0.0000000000000000e+00
5.0000000000000003e-02  2.2222222222222221e-01  2.9999999999999999e-01
5.0000000000000003e-02  1.9444444444444442e-01  0.0000000000000000e+00
5.0000000000000003e-02  1.9444444444444442e-01  2.9999999999999999e-01
5.0000000000000003e-02  2.2222222222222221e-01  1.4999999999999999e-01
5.0000000000000003e-02  1.9444444444444442e-01  1.4999999999999999e-01
-5.0000000000000003e-02  2.7777777777777779e-01  0.0000000000000000e+00
-5.0000000000000003e-02  2.7777777777777779e-01  2.9999999999999999e-01
-5.0000000000000003e-02  2.5000000000000000e-01  0.0000000000000000e+00
-5.0000000000000003e-02  2.5000000000000000e-01  2.9999999999999999e-01
-5.0000000000000003e-02  2.7777777777777779e-01  1.4999999999999999e-01
-5.0000000000000003e-02  2.5000000000000000e-01  1.4999999999999999e-01
5.0000000000000003e-02  2.7777777777777779e-01  0.0000000000000000e+00
5.0000000000000003e-02  2.7777777777777779e-01  2.9999999999999999e-01
5.0000000000000003e-02  2.5000000000000000e-01  0.0000000000000000e+00
5.0000000000000003e-02  2.5000000000000000e-01  2.9999999999999999e-01
5.0000000000000003e-02  2.7777777777777779e-01  1.4999999999999999e-01
5.0000000000000003e-02  2.5000000000000000e-01  1.4999999999999999e-01
-5.0000000000000003e-02  3.3333333333333331e-01  0.0000000000000000e+00
-5.0000000000000003e-02  3.3333333333333331e-01  2.9999999999999999e-01
-5.0000000000000003e-02  3.0555555555555558e-01  0.0000000000000000e+00
-5.0000000000000003e-02  3.0555555555555558e-01  2.9999999999999999e-01
-5.0000000000000003e-02  3.3333333333333331e-01  1.4999999999999999e-01
-5.0000000000000003e-02  3.0555555555555558e-01  1.4999999999999999e-01
5.0000000000000003e-02  3.3333333333333331e-01  0.0000000000000000e+00
5.0000000000000003e-02  3.3333333333333331e-01  2.9999999999999999e-01
5.0000000000000003e-02  3.0555555555555558e-01  0.0000000000000000e+00
5.0000000000000003e-02  3.0555555555555558e-01  2.9999999999999999e-01
5.0000000000000003e-02  3.3333333333333331e-01  1.4999999999999999e-01
5.0000000000000003e-02  3.0555555555555558e-01  1.4999999999999999e-01
-5.0000000000000003e-02  3.8888888888888884e-01  0.0000000000000000e+00
-5.0000000000000003e-02  3.8888888888888884e-01  2.9999999999999999e-01
-5.0000000000000003e-02  3.6111111111111105e-01  0.0000000000000000e+00
-5.0000000000000003e-02  3.6111111111111105e-01  2.9999999999999999e-01
-5.0000000000000003e-02  3.8888888888888884e-01  1.4999999999999999e-01
-5.0000000000000003e-02  3.6111111111111105e-01  1.4999999999999999e-01
5.0000000000000003e-02  3.8888888888888884e-01  0.0000000000000000e+00
5.0000000000000003e-02  3.8888888888888884e-01  2.9999999999999999e-01
5.0000000000000003e-02  3.6111111111111105e-01  0.0000000000000000e+00
5.0000000000000003e-02  3.6111111111111105e-01  2.9999999999999999e-01
5.0000000000000003e-02  3.8888888888888884e-01  1.4999999999999999e-01
5.0000000000000003e-02  3.6111111111111105e-01  1.4999999999999999e-01
-5.0000000000000003e-02  4.4444444444444442e-01  0.0000000000000000e+00
-5.0000000000000003e-02  4.4444444444444442e-01  2.9999999999999999e-01
-5.0000000000000003e-02  4.1666666666666663e-01  0.0000000000000000e+00
-5.0000000000000003e-02  4.1666666666666663e-01  2.9999999999999999e-01
-5.0000000000000003e-02  4.4444444444444442e-01  1.4999999999999999e-01
-5.0000000000000003e-02  4.1666666666666663e-01  1.4999999999999999e-01
5.0000000000000003e-02  4.4444444444444442e-01  0.0000000000000000e+00
5.0000000000000003e-02  4.4444444444444442e-01  2.9999999999999999e-01
5.0000000000000003e-02  4.1666666666666663e-01  0.0000000000000000e+00
5.0000000000000003e-02  4.1666666666666663e-01  2.9999999999999999e-01
5.0000000000000003e-02  4.4444444444444442e-01  1.4999999999999999e-01
5.0000000000000003e-02  4.1666666666666663e-01  1.4999999999999999e-01
-5.0000000000000003e-02  5.0000000000000000e-01  0.0000000000000000e+00
-5.0000000000000003e-02  5.0000000000000000e-01  2.9999999999999999e-01
-5.0000000000000003e-02  4.7222222222222221e-01  0.0000000000000000e+00
-5.0000000000000003e-02  4.7222222222222221e-01  2.9999999999999999e-01
-5.0000000000000003e-02  5.0000000000000000e-01  1.4999999999999999e-01
-5.0000000000000003e-02  4.7222222222222221e-01  1.4999999999999999e-01
5.0000000000000003e-02  5.0000000000000000e-01  0.0000000000000000e+00
5.0000000000000003e-02  5.0000000000000000e-01  2.9999999999999999e-01
5.0000000000000003e-02  4.7222222222222221e-01  0.0000000000000000e+00
5.0000000000000003e-02  4.7222222222222221e-01  2.9999999999999999e-01
5.0000000000000003e-02  5.0000000000000000e-01  1.4999999999999999e-01
5.0000000000000003e-02  4.7222222222222221e-01  1.4999999999999999e-01
-5.0000000000000003e-02  5.5555555555555558e-01  0.0000000000000000e+00
-5.0000000000000003e-02  5.5555555555555558e-01  2.9999999999999999e-01
-5.0000000000000003e-02  5.2777777777777779e-01  0.0000000000000000e+00
-5.0000000000000003e-02  5.2777777777777779e-01  2.9999999999999999e-01
-5.0000000000000003e-02  5.5555555555555558e-01  1.4999999999999999e-01
-5.0000000000000003e-02  5.2777777777777779e-01  1.4999999999999999e-01
5.0000000000000003e-02  5.5555555555555558e-01  0.0000000000000000e+00
5.0000000000000003e-02  5.5555555555555558e-01  2.9999999999999999e-01
5.0000000000000003e-02  5.2777777777777779e-01  0.0000000000000000e+00
5.0000000000000003e-02  5.2777777777777779e-01  2.9999999999999999e-01
5.0000000000000003e-02  5.5555555555555558e-01  1.4999999999999999e-01
5.0000000000000003e-02  5.2777777777777779e-01  1.4999999999999999e-01
-5.0000000000000003e-02  6.1111111111111105e-01  0.0000000000000000e+00
-5.0000000000000003e-02  6.1111111111111105e-01  2.9999999999999999e-01
-5.0000000000000003e-02  5.8333333333333326e-01  0.0000000000000000e+00
-5.0000000000000003e-02  5.8333333333333326e-01  2.9999999999999999e-01
-5.0000000000000003e-02  6.1111111111111105e-01  1.4999999999999999e-01
-5.0000000000000003e-02  5.8333333333333326e-01  1.4999999999999999e-01
5.0000000000000003e-02  6.1111111111111105e-01  0.0000000000000000e+00
5.0000000000000003e-02  6.1111111111111105e-01  2.9999999999999999e-01
5.0000000000000003e-02  5.8333333333333326e-01  0.0000000000000000e+00
5.0000000000000003e-02  5.8333333333333326e-01  2.9999999999999999e-01
5.0000000000000003e-02  6.1111111111111105e-01  1.4999999999999999e-01
5.0000000000000003e-02  5.8333333333333326e-01  1.4999999999999999e-01
-5.0000000000000003e-02  6.6666666666666663e-01  0.0000000000000000e+00
-5.0000000000000003e-02  6.6666666666666663e-01  2.9999999999999999e-01
-5.0000000000000003e-02  6.3888888888888884e-01  0.0000000000000000e+00
-5.0000000000000003e-02  6.3888888888888884e-01  2.9999999999999999e-01
-5.0000000000000003e-02  6.6666666666666663e-01  1.4999999999999999e-01
-5.0000000000000003e-02  6.3888888888888884e-01  1.4999999999999999e-01
5.0000000000000003e-02  6.6666666666666663e-01  0.0000000000000000e+00
5.0000000000000003e-02  6.6666666666666663e-01  2.9999999999999999e-01
5.0000000000000003e-02  6.3888888888888884e-01  0.0000000000000000e+00
5.0000000000000003e-02  6.3888888888888884e-01  2.9999999999999999e-01
5.0000000000000003e-02  6.6666666666666663e-01  1.4999999999999999e-01
5.0000000000000003e-02  6.3888888888888884e-01  1.4999999999999999e-01
-5.0000000000000003e-02  7.2222222222222221e-01  0.0000000000000000e+00
-5.0000000000000003e-02  7.2222222222222221e-01  2.9999999999999999e-01
-5.0000000000000003e-02  6.9444444444444442e-01  0.0000000000000000e+00
-5.0000000000000003e-02  6.9444444444444442e-01  2.9999999999999999e-01
-5.0000000000000003e-02  7.2222222222222221e-01  1.4999999999999999e-01
-5.0000000000000003e-02  6.9444444444444442e-01  1.4999999999999999e-01
5.0000000000000003e-02  7.2222222222222221e-01  0.0000000000000000e+00
5.0000000000000003e-02  7.2222222222222221e-01  2.9999999999999999e-01
5.0000000000000003e-02  6.9444444444444442e-01  0.0000000000000000e+00
5.0000000000000003e-02  6.9444444444444442e-01  2.9999999999999999e-01
5.0000000000000003e-02  7.2222222222222221e-01  1.4999999999999999e-01
5.0000000000000003e-02  6.9444444444444442e-01  1.4999999999999999e-01
-5.0000000000000003e-02  7.7777777777777768e-01  0.0000000000000000e+00
-5.0000000000000003e-02  7.7777777777777768e-01  2.9999999999999999e-01
-5.0000000000000003e-02  7.5000000000000000e-01  0.0000000000000000e+00
-5.0000000000000003e-02  7.5000000000000000e-01  2.9999999999999999e-01
-5.0000000000000003e-02  7.7777777777777768e-01  1.4999999999999999e-01
-5.0000000000000003e-02  7.5000000000000000e-01  1.4999999999999999e-01
5.0000000000000003e-02  7.7777777777777768e-01  0.0000000000000000e+00
5.0000000000000003e-02  7.7777777777777768e-01  2.9999999999999999e-01
5.0000000000000003e-02  7.5000000000000000e-01  0.0000000000000000e+00
5.0000000000000003e-02  7.5000000000000000e-01  2.9999999999999999e-01
5.0000000000000003e-02  7.7777777777777768e-01  1.4999999999999999e-01
5.0000000000000003e-02  7.5000000000000000e-01  1.4999999999999999e-01
-5.0000000000000003e-02  8.3333333333333326e-01  0.0000000000000000e+00
-5.0000000000000003e-02  8.3333333333333326e-01  2.9999999999999999e-01
-5.0000000000000003e-02  8.0555555555555547e-01  0.0000000000000000e+00
-5.0000000000000003e-02  8.0555555555555547e-01  2.9999999999999999e-01
-5.0000000000000003e-02  8.3333333333333326e-01  1.4999999999999999e-01
-5.0000000000000003e-02  8.0555555555555536e-01  1.4999999999999999e-01
5.0000000000000003e-02  8.3333333333333326e-01  0.0000000000000000e+00
5.0000000000000003e-02  8.3333333333333326e-01  2.9999999999999999e-01
5.0000000000000003e-02  8.0555555555555547e-01  0.0000000000000000e+00
5.0000000000000003e-02  8.0555555555555547e-01  2.9999999999999999e-01
5.0000000000000003e-02  8.3333333333333326e-01  1.4999999999999999e-01
5.0000000000000003e-02  8.0555555555555536e-01  1.4999999999999999e-01
-5.0000000000000003e-02  8.8888888888888884e-01  0.0000000000000000e+00
-5.0000000000000003e-02  8.8888888888888884e-01  2.9999999999999999e-01
-5.0000000000000003e-02  8.6111111111111105e-01  0.0000000000000000e+00
-5.0000000000000003e-02  8.6111111111111105e-01  2.9999999999999999e-01
-5.0000000000000003e-02  8.8888888888888884e-01  1.4999999999999999e-01
-5.0000000000000003e-02  8.6111111111111105e-01  1.4999999999999999e-01
5.0000000000000003e-02  8.8888888888888884e-01  0.0000000000000000e+00
5.0000000000000003e-02  8.8888888888888884e-01  2.9999999999999999e-01
5.0000000000000003e-02  8.6111111111111105e-01  0.0000000000000000e+00
5.0000000000000003e-02  8.6111111111111105e-01  2.9999999999999999e-01
5.0000000000000003e-02  8.8888888888888884e-01  1.4999999999999999e-01
5.0000000000000003e-02  8.6111111111111105e-01  1.4999999999999999e-01
-5.0000000000000003e-02  9.4444444444444442e-01  0.0000000000000000e+00
-5.0000000000000003e-02  9.4444444444444442e-01  2.9999999999999999e-01
-5.0000000000000003e-02  9.1666666666666663e-01  0.0000000000000000e+00
-5.0000000000000003e-02  9.1666666666666663e-01  2.9999999999999999e-01
-5.0000000000000003e-02  9.4444444444444442e-01  1.4999999999999999e-01
-5.0000000000000003e-02  9.1666666666666674e-01  1.4999999999999999e-01
5.0000000000000003e-02  9.4444444444444442e-01  0.0000000000000000e+00
5.0000000000000003e-02  9.4444444444444442e-01  2.9999999999999999e-01
5.0000000000000003e-02  9.1666666666666663e-01  0.0000000000000000e+00
5.0000000000000003e-02  9.1666666666666663e-01  2.9999999999999999e-01
5.0000000000000003e-02  9.4444444444444442e-01  1.4999999999999999e-01
5.0000000000000003e-02  9.1666666666666674e-01  1.4999999999999999e-01
-5.0000000000000003e-02  1.0000000000000000e+00  0.0000000000000000e+00
-1.6666666666666670e-02  1.0000000000000000e+00  0.0000000000000000e+00
-5.0000000000000003e-02  1.0000000000000000e+00  2.9999999999999999e-01
-1.6666666666666670e-02  1.0000000000000000e+00  2.9999999999999999e-01
-5.0000000000000003e-02  9.7222222222222221e-01  0.0000000000000000e+00
-3.3333333333333340e-02  1.0000000000000000e+00  0.0000000000000000e+00
-5.0000000000000003e-02  9.7222222222222221e-01  2.9999999999999999e-01
-3.3333333333333340e-02  1.0000000000000000e+00  2.9999999999999999e-01
-5.0000000000000003e-02  1.0000000000000000e+00  1.4999999999999999e-01
-1.6666666666666670e-02  1.0000000000000000e+00  1.4999999999999999e-01
-5.0000000000000003e-02  9.7222222222222221e-01  1.4999999999999999e-01
-3.3333333333333340e-02  1.0000000000000000e+00  1.4999999999999999e-01
1.6666666666666663e-02  1.0000000000000000e+00  0.0000000000000000e+00
1.6666666666666663e-02  1.0000000000000000e+00  2.9999999999999999e-01
-3.4694469519536142e-18  1.0000000000000000e+00  0.0000000000000000e+00
-3.4694469519536142e-18  1.0000000000000000e+00  2.9999999999999999e-01
1.6666666666666663e-02  1.0000000000000000e+00  1.4999999999999999e-01
-3.4694469519536142e-18  1.0000000000000000e+00  1.4999999999999999e-01
5.0000000000000003e-02  1.0000000000000000e+00  0.0000000000000000e+00
5.0000000000000003e-02  1.0000000000000000e+00  2.9999999999999999e-01
5.0000000000000003e-02  9.7222222222222221e-01  0.0000000000000000e+00
3.3333333333333333e-02  1.0000000000000000e+00  0.0000000000000000e+00
5.0000000000000003e-02  9.7222222222222221e-01  2.9999999999999999e-01
3.3333333333333333e-02  1.0000000000000000e+00  2.9999999999999999e-01
5.0000000000000003e-02  1.0000000000000000e+00  1.4999999999999999e-01
5.0000000000000003e-02  9.7222222222222221e-01  1.4999999999999999e-01
3.3333333333333333e-02  1.0000000000000000e+00  1.4999999999999999e-01

CELLS 0 0


CELL_TYPES 0


POINT_DATA 237

VECTORS VertexNormals float

0.0000000000000000e+00 0.0000000000000000e+00 0.0000000000000000e+00 
0.0000000000000000e+00 0.0000000000000000e+00 0.0000000000000000e+00 
0.0000000000000000e+00 0.0000000000000000e+00 0.0000000000000000e+00 
0.0000000000000000e+00 0.0000000000000000e+00 0.0000000000000000e+00 
0.0000000000000000e+00 0.0000000000000000e+00 0.0000000000000000e+00 
0.0000000000000000e+00 0.0000000000000000e+00 0.0000000000000000e+00 
0.0000000000000000e+00 0.0000000000000000e+00 0.0000000000000000e+00 
0.0000000000000000e+00 0.0000000000000000e+00 0.0000000000000000e+00 
0.0000000000000000e+00 0.0000000000000000e+00 0.0000000000000000e+00 
0.0000000000000000e+00 0.0000000000000000e+00 0.0000000000000000e+00 
0.0000000000000000e+00 0.0000000000000000e+00 0.0000000000000000e+00 
0.0000000000000000e+00 0.0000000000000000e+00 0.0000000000000000e+00 
0.0000000000000000e+00 0.0000000000000000e+00 0.0000000000000000e+00 
0.0000000000000000e+00 0.0000000000000000e+00 0.0000000000000000e+00 
0.0000000000000000e+00 0.0000000000000000e+00 0.0000000000000000e+00 
0.0000000000000000e+00 0.0000000000000000e+00 0.0000000000000000e+00 
0.0000000000000000e+00 0.0000000000000000e+00 0.0000000000000000e+00 
0.0000000000000000e+00 0.0000000000000000e+00 0.0000000000000000e+00 
0.0000000000000000e+00 0.0000000000000000e+00 0.0000000000000000e+00 
0.0000000000000000e+00 0.0000000000000000e+00 0.0000000000000000e+00 
0.0000000000000000e+00 0.0000000000000000e+00 0.0000000000000000e+00 
0.0000000000000000e+00 0.0000000000000000e+00 0.0000000000000000e+00 
0.0000000000000000e+00 0.0000000000000000e+00 0.0000000000000000e+00 
0.0000000000000000e+00 0.0000000000000000e+00 0.0000000000000000e+00 
0.0000000000000000e+00 0.0000000000000000e+00 0.0000000000000000e+00 
0.0000000000000000e+00 0.0000000000000000e+00 0.0000000000000000e+00 
0.0000000000000000e+00 0.0000000000000000e+00 0.0000000000000000e+00 
0.0000000000000000e+00 0.0000000000000000e+00 0.0000000000000000e+00 
0.0000000000000000e+00 0.0000000000000000e+00 0.0000000000000000e+00 
0.0000000000000000e+00 0.0000000000000000e+00 0.0000000000000000e+00 
0.0000000000000000e+00 0.0000000000000000e+00 0.0000000000000000e+00 
0.0000000000000000e+00 0.0000000000000000e+00 0.0000000000000000e+00 
0.0000000000000000e+00 0.0000000000000000e+00 0.0000000000000000e+00 
0.0000000000000000e+00 0.0000000000000000e+00 0.0000000000000000e+00 
0.0000000000000000e+00 0.0000000000000000e+00 0.0000000000000000e+00 
0.0000000000000000e+00 0.0000000000000000e+00 0.0000000000000000e+00 
0.0000000000000000e+00 0.0000000000000000e+00 0.0000000000000000e+00 
0.0000000000000000e+00 0.0000000000000000e+00 0.0000000000000000e+00 
0.0000000000000000e+00 0.0000000000000000e+00 0.0000000000000000e+00 
0.0000000000000000e+00 0.0000000000000000e+00 0.0000000000000000e+00 
0.0000000000000000e+00 0.0000000000000000e+00 0.0000000000000000e+00 
0.0000000000000000e+00 0.0000000000000000e+00 0.0000000000000000e+00 
0.0000000000000000e+00 0.0000000000000000e+00 0.0000000000000000e+00 
0.0000000000000000e+00 0.0000000000000000e+00 0.0000000000000000e+00 
0.0000000000000000e+00 0.0000000000000000e+00 0.0000000000000000e+00 
0.0000000000000000e+00 0.0000000000000000e+00 0.0000000000000000e+00 
0.0000000000000000e+00 0.0000000000000000e+00 0.0000000000000000e+00 
0.0000000000000000e+00 0.0000000000000000e+00 0.0000000000000000e+00 
0.0000000000000000e+00 0.0000000000000000e+00 0.0000000000000000e+00 
0.0000000000000000e+00 0.0000000000000000e+00 0.0000000000000000e+00 
0.0000000000000000e+00 0.0000000000000000e+00 0.0000000000000000e+00 
0.0000000000000000e+00 0.0000000000000000e+00 0.0000000000000000e+00 
0.0000000000000000e+00 0.0000000000000000e+00 0.0000000000000000e+00 
0.0000000000000000e+00 0.0000000000000000e+00 0.0000000000000000e+00 
0.0000000000000000e+00 0.0000000000000000e+00 0.0000000000000000e+00 
0.0000000000000000e+00 0.0000000000000000e+00 0.0000000000000000e+00 
0.0000000000000000e+00 0.0000000000000000e+00 0.0000000000000000e+00 
0.0000000000000000e+00 0.0000000000000000e+00 0.0000000000000000e+00 
0.0000000000000000e+00 0.0000000000000000e+00 0.0000000000000000e+00 
0.0000000000000000e+00 0.0000000000000000e+00 0.0000000000000000e+00 
0.0000000000000000e+00 0.0000000000000000e+00 0.0000000000000000e+00 
0.0000000000000000e+00 0.0000000000000000e+00 0.0000000000000000e+00 
0.0000000000000000e+00 0.0000000000000000e+00 0.0000000000000000e+00 
0.0000000000000000e+00 0.0000000000000000e+00 0.0000000000000000e+00 
0.0000000000000000e+00 0.0000000000000000e+00 0.0000000000000000e+00 
0.0000000000000000e+00 0.0000000000000000e+00 0.0000000000000000e+00 
0.0000000000000000e+00 0.0000000000000000e+00 0.0000000000000000e+00 
0.0000000000000000e+00 0.0000000000000000e+00 0.0000000000000000e+00 
0.0000000000000000e+00 0.0000000000000000e+00 0.0000000000000000e+00 
0.0000000000000000e+00 0.0000000000000000e+00 0.0000000000000000e+00 
0.0000000000000000e+00 0.0000000000000000e+00 0.0000000000000000e+00 
0.0000000000000000e+00 0.0000000000000000e+00 0.0000000000000000e+00 
0.0000000000000000e+00 0.0000000000000000e+00 0.0000000000000000e+00 
0.0000000000000000e+00 0.0000000000000000e+00 0.0000000000000000e+00 
0.0000000000000000e+00 0.0000000000000000e+00 0.0000000000000000e+00 
0.0000000000000000e+00 0.0000000000000000e+00 0.0000000000000000e+00 
0.0000000000000000e+00 0.0000000000000000e+00 0.0000000000000000e+00 
0.0000000000000000e+00 0.0000000000000000e+00 0.0000000000000000e+00 
0.0000000000000000e+00 0.0000000000000000e+00 0.0000000000000000e+00 
0.0000000000000000e+00 0.0000000000000000e+00 0.0000000000000000e+00 
0.0000000000000000e+00 0.0000000000000000e+00 0.0000000000000000e+00 
0.0000000000000000e+00 0.0000000000000000e+00 0.0000000000000000e+00 
0.0000000000000000e+00 0.0000000000000000e+00 0.0000000000000000e+00 
0.0000000000000000e+00 0.0000000000000000e+00 0.0000000000000000e+00 
0.0000000000000000e+00 0.0000000000000000e+00 0.0000000000000000e+00 
0.0000000000000000e+00 0.0000000000000000e+00 0.0000000000000000e+00 
0.0000000000000000e+00 0.0000000000000000e+00 0.0000000000000000e+00 
0.0000000000000000e+00 0.0000000000000000e+00 0.0000000000000000e+00 
0.0000000000000000e+00 0.0000000000000000e+00 0.0000000000000000e+00 
0.0000000000000000e+00 0.0000000000000000e+00 0.0000000000000000e+00 
0.0000000000000000e+00 0.0000000000000000e+00 0.0000000000000000e+00 
0.0000000000000000e+00 0.0000000000000000e+00 0.0000000000000000e+00 
0.0000000000000000e+00 0.0000000000000000e+00 0.0000000000000000e+00 
0.0000000000000000e+00 0.0000000000000000e+00 0.0000000000000000e+00 
0.0000000000000000e+00 0.0000000000000000e+00 0.0000000000000000e+00 
0.0000000000000000e+00 0.0000000000000000e+00 0.0000000000000000e+00 
0.0000000000000000e+00 0.0000000000000000e+00 0.0000000000000000e+00 
0.0000000000000000e+00 0.0000000000000000e+00 0.0000000000000000e+00 
0.0000000000000000e+00 0.0000000000000000e+00 0.0000000000000000e+00 
0.0000000000000000e+00 0.0000000000000000e+00 0.0000000000000000e+00 
0.0000000000000000e+00 0.0000000000000000e+00 0.0000000000000000e+00 
0.0000000000000000e+00 0.0000000000000000e+00 0.0000000000000000e+00 
0.0000000000000000e+00 0.0000000000000000e+00 0.0000000000000000e+00 
0.0000000000000000e+00 0.0000000000000000e+00 0.0000000000000000e+00 
0.0000000000000000e+00 0.0000000000000000e+00 0.0000000000000000e+00 
0.0000000000000000e+00 0.0000000000000000e+00 0.0000000000000000e+00 
0.0000000000000000e+00 0.0000000000000000e+00 0.0000000000000000e+00 
0.0000000000000000e+00 0.0000000000000000e+00 0.0000000000000000e+00 
0.0000000000000000e+00 0.0000000000000000e+00 0.0000000000000000e+00 
0.0000000000000000e+00 0.0000000000000000e+00 0.0000000000000000e+00 
0.0000000000000000e+00 0.0000000000000000e+00 0.0000000000000000e+00 
0.0000000000000000e+00 0.0000000000000000e+00 0.0000000000000000e+00 
0.0000000000000000e+00 0.0000000000000000e+00 0.0000000000000000e+00 
0.0000000000000000e+00 0.0000000000000000e+00 0.0000000000000000e+00 
0.0000000000000000e+00 0.0000000000000000e+00 0.0000000000000000e+00 
0.0000000000000000e+00 0.0000000000000000e+00 0.0000000000000000e+00 
0.0000000000000000e+00 0.0000000000000000e+00 0.0000000000000000e+00 
0.0000000000000000e+00 0.0000000000000000e+00 0.0000000000000000e+00 
0.0000000000000000e+00 0.0000000000000000e+00 0.0000000000000000e+00 
0.0000000000000000e+00 0.0000000000000000e+00 0.0000000000000000e+00 
0.0000000000000000e+00 0.0000000000000000e+00 0.0000000000000000e+00 
0.0000000000000000e+00 0.0000000000000000e+00 0.0000000000000000e+00 
0.0000000000000000e+00 0.0000000000000000e+00 0.0000000000000000e+00 
0.0000000000000000e+00 0.0000000000000000e+00 0.0000000000000000e+00 
0.0000000000000000e+00 0.0000000000000000e+00 0.0000000000000000e+00 
0.0000000000000000e+00 0.0000000000000000e+00 0.0000000000000000e+00 
0.0000000000000000e+00 0.0000000000000000e+00 0.0000000000000000e+00 
0.0000000000000000e+00 0.0000000000000000e+00 0.0000000000000000e+00 
0.0000000000000000e+00 0.0000000000000000e+00 0.0000000000000000e+00 
0.0000000000000000e+00 0.0000000000000000e+00 0.0000000000000000e+00 
0.0000000000000000e+00 0.0000000000000000e+00 0.0000000000000000e+00 
0.0000000000000000e+00 0.0000000000000000e+00 0.0000000000000000e+00 
0.0000000000000000e+00 0.0000000000000000e+00 0.0000000000000000e+00 
0.0000000000000000e+00 0.0000000000000000e+00 0.0000000000000000e+00 
0.0000000000000000e+00 0.0000000000000000e+00 0.0000000000000000e+00 
0.0000000000000000e+00 0.0000000000000000e+00 0.0000000000000000e+00 
0.0000000000000000e+00 0.0000000000000000e+00 0.0000000000000000e+00 
0.0000000000000000e+00 0.0000000000000000e+00 0.0000000000000000e+00 
0.0000000000000000e+00 0.0000000000000000e+00 0.0000000000000000e+00 
0.0000000000000000e+00 0.0000000000000000e+00 0.0000000000000000e+00 
0.0000000000000000e+00 0.0000000000000000e+00 0.0000000000000000e+00 
0.0000000000000000e+00 0.0000000000000000e+00 0.0000000000000000e+00 
0.0000000000000000e+00 0.0000000000000000e+00 0.0000000000000000e+00 
0.0000000000000000e+00 0.0000000000000000e+00 0.0000000000000000e+00 
0.0000000000000000e+00 0.0000000000000000e+00 0.0000000000000000e+00 
0.0000000000000000e+00 0.0000000000000000e+00 0.0000000000000000e+00 
0.0000000000000000e+00 0.0000000000000000e+00 0.0000000000000000e+00 
0.0000000000000000e+00 0.0000000000000000e+00 0.0000000000000000e+00 
0.0000000000000000e+00 0.0000000000000000e+00 0.0000000000000000e+00 
0.0000000000000000e+00 0.0000000000000000e+00 0.0000000000000000e+00 
0.0000000000000000e+00 0.0000000000000000e+00 0.0000000000000000e+00 
0.0000000000000000e+00 0.0000000000000000e+00 0.0000000000000000e+00 
0.0000000000000000e+00 0.0000000000000000e+00 0.0000000000000000e+00 
0.0000000000000000e+00 0.0000000000000000e+00 0.0000000000000000e+00 
0.0000000000000000e+00 0.0000000000000000e+00 0.0000000000000000e+00 
0.0000000000000000e+00 0.0000000000000000e+00 0.0000000000000000e+00 
0.0000000000000000e+00 0.0000000000000000e+00 0.0000000000000000e+00 
0.0000000000000000e+00 0.0000000000000000e+00 0.0000000000000000e+00 
0.0000000000000000e+00 0.0000000000000000e+00 0.0000000000000000e+00 
0.0000000000000000e+00 0.0000000000000000e+00 0.0000000000000000e+00 
0.0000000000000000e+00 0.0000000000000000e+00 0.0000000000000000e+00 
0.0000000000000000e+00 0.0000000000000000e+00 0.0000000000000000e+00 
0.0000000000000000e+00 0.0000000000000000e+00 0.0000000000000000e+00 
0.0000000000000000e+00 0.0000000000000000e+00 0.0000000000000000e+00 
0.0000000000000000e+00 0.0000000000000000e+00 0.0000000000000000e+00 
0.0000000000000000e+00 0.0000000000000000e+00 0.0000000000000000e+00 
0.0000000000000000e+00 0.0000000000000000e+00 0.0000000000000000e+00 
0.0000000000000000e+00 0.0000000000000000e+00 0.0000000000000000e+00 
0.0000000000000000e+00 0.0000000000000000e+00 0.0000000000000000e+00 
0.0000000000000000e+00 0.0000000000000000e+00 0.0000000000000000e+00 
0.0000000000000000e+00 0.0000000000000000e+00 0.0000000000000000e+00 
0.0000000000000000e+00 0.0000000000000000e+00 0.0000000000000000e+00 
0.0000000000000000e+00 0.0000000000000000e+00 0.0000000000000000e+00 
0.0000000000000000e+00 0.0000000000000000e+00 0.0000000000000000e+00 
0.0000000000000000e+00 0.0000000000000000e+00 0.0000000000000000e+00 
0.0000000000000000e+00 0.0000000000000000e+00 0.0000000000000000e+00 
0.0000000000000000e+00 0.0000000000000000e+00 0.0000000000000000e+00 
0.0000000000000000e+00 0.0000000000000000e+00 0.0000000000000000e+00 
0.0000000000000000e+00 0.0000000000000000e+00 0.0000000000000000e+00 
0.0000000000000000e+00 0.0000000000000000e+00 0.0000000000000000e+00 
0.0000000000000000e+00 0.0000000000000000e+00 0.0000000000000000e+00 
0.0000000000000000e+00 0.0000000000000000e+00 0.0000000000000000e+00 
0.0000000000000000e+00 0.0000000000000000e+00 0.0000000000000000e+00 
0.0000000000000000e+00 0.0000000000000000e+00 0.0000000000000000e+00 
0.0000000000000000e+00 0.0000000000000000e+00 0.0000000000000000e+00 
0.0000000000000000e+00 0.0000000000000000e+00 0.0000000000000000e+00 
0.0000000000000000e+00 0.0000000000000000e+00 0.0000000000000000e+00 
0.0000000000000000e+00 0.0000000000000000e+00 0.0000000000000000e+00 
0.0000000000000000e+00 0.0000000000000000e+00 0.0000000000000000e+00 
0.0000000000000000e+00 0.0000000000000000e+00 0.0000000000000000e+00 
0.0000000000000000e+00 0.0000000000000000e+00 0.0000000000000000e+00 
0.0000000000000000e+00 0.0000000000000000e+00 0.0000000000000000e+00 
0.0000000000000000e+00 0.0000000000000000e+00 0.0000000000000000e+00 
0.0000000000000000e+00 0.0000000000000000e+00 0.0000000000000000e+00 
0.0000000000000000e+00 0.0000000000000000e+00 0.0000000000000000e+00 
0.0000000000000000e+00 0.0000000000000000e+00 0.0000000000000000e+00 
0.0000000000000000e+00 0.0000000000000000e+00 0.0000000000000000e+00 
0.0000000000000000e+00 0.0000000000000000e+00 0.0000000000000000e+00 
0.0000000000000000e+00 0.0000000000000000e+00 0.0000000000000000e+00 
0.0000000000000000e+00 0.0000000000000000e+00 0.0000000000000000e+00 
0.0000000000000000e+00 0.0000000000000000e+00 0.0000000000000000e+00 
0.0000000000000000e+00 0.0000000000000000e+00 0.0000000000000000e+00 
0.0000000000000000e+00 0.0000000000000000e+00 0.0000000000000000e+00 
0.0000000000000000e+00 0.0000000000000000e+00 0.0000000000000000e+00 
0.0000000000000000e+00 0.0000000000000000e+00 0.0000000000000000e+00 
0.0000000000000000e+00 0.0000000000000000e+00 0.0000000000000000e+00 
0.0000000000000000e+00 0.0000000000000000e+00 0.0000000000000000e+00 
0.0000000000000000e+00 0.0000000000000000e+00 0.0000000000000000e+00 
0.0000000000000000e+00 0.0000000000000000e+00 0.0000000000000000e+00 
0.0000000000000000e+00 0.0000000000000000e+00 0.0000000000000000e+00 
0.0000000000000000e+00 0.0000000000000000e+00 0.0000000000000000e+00 
0.0000000000000000e+00 0.0000000000000000e+00 0.0000000000000000e+00 
0.0000000000000000e+00 0.0000000000000000e+00 0.0000000000000000e+00 
0.0000000000000000e+00 0.0000000000000000e+00 0.0000000000000000e+00 
0.0000000000000000e+00 0.0000000000000000e+00 0.0000000000000000e+00 
0.0000000000000000e+00 0.0000000000000000e+00 0.0000000000000000e+00 
0.0000000000000000e+00 0.0000000000000000e+00 0.0000000000000000e+00 
0.0000000000000000e+00 0.0000000000000000e+00 0.0000000000000000e+00 
0.0000000000000000e+00 0.0000000000000000e+00 0.0000000000000000e+00 
0.0000000000000000e+00 0.0000000000000000e+00 0.0000000000000000e+00 
0.0000000000000000e+00 0.0000000000000000e+00 0.0000000000000000e+00 
0.0000000000000000e+00 0.0000000000000000e+00 0.0000000000000000e+00 
0.0000000000000000e+00 0.0000000000000000e+00 0.0000000000000000e+00 
0.0000000000000000e+00 0.0000000000000000e+00 0.0000000000000000e+00 
0.0000000000000000e+00 0.0000000000000000e+00 0.0000000000000000e+00 
0.0000000000000000e+00 0.0000000000000000e+00 0.0000000000000000e+00 
0.0000000000000000e+00 0.0000000000000000e+00 0.0000000000000000e+00 
0.0000000000000000e+00 0.0000000000000000e+00 0.0000000000000000e+00 
0.0000000000000000e+00 0.0000000000000000e+00 0.0000000000000000e+00 
0.0000000000000000e+00 0.0000000000000000e+00 0.0000000000000000e+00 
0.0000000000000000e+00 0.0000000000000000e+00 0.0000000000000000e+00 
0.0000000000000000e+00 0.0000000000000000e+00 0.0000000000000000e+00 
0.0000000000000000e+00 0.0000000000000000e+00 0.0000000000000000e+00 
0.0000000000000000e+00 0.0000000000000000e+00 0.0000000000000000e+00 
0.0000000000000000e+00 0.0000000000000000e+00 0.0000000000000000e+00 
0.0000000000000000e+00 0.0000000000000000e+00 0.0000000000000000e+00 
0.0000000000000000e+00 0.0000000000000000e+00 0.0000000000000000e+00 

VECTORS Displacement float
0.0000000000000000e+00 0.0000000000000000e+00 0.0000000000000000e+00 
2.3566963794779644e-03 2.8889257490180569e-03 0.0000000000000000e+00 
0.0000000000000000e+00 0.0000000000000000e+00 0.0000000000000000e+00 
2.3566749291727375e-03 2.8889249680067114e-03 0.0000000000000000e+00 
1.0102841986760784e-03 1.5126026789557873e-03 0.0000000000000000e+00 
1.0102776118234469e-03 1.5126064341971007e-03 0.0000000000000000e+00 
0.0000000000000000e+00 0.0000000000000000e+00 0.0000000000000000e+00 
2.3566898509301696e-03 2.8889178321912434e-03 -4.6926086675633129e-09 
1.0102853269122285e-03 1.5125947409910345e-03 -5.4263525764839897e-09 
0.0000000000000000e+00 0.0000000000000000e+00 0.0000000000000000e+00 
2.3054248773768963e-03 -2.6607915192572934e-03 0.0000000000000000e+00 
0.0000000000000000e+00 0.0000000000000000e+00 0.0000000000000000e+00 
2.3054002362294713e-03 -2.6607891485763164e-03 0.0000000000000000e+00 
9.9041373807490316e-04 -1.4027936045497157e-03 0.0000000000000000e+00 
9.9040522440228427e-04 -1.4027934520990755e-03 0.0000000000000000e+00 
0.0000000000000000e+00 0.0000000000000000e+00 0.0000000000000000e+00 
2.3054094761419453e-03 -2.6607841476010549e-03 3.0519886848737058e-09 
9.9041207864973167e-04 -1.4027923419012973e-03 1.6410617592857714e-09 
6.9950447999978741e-03 5.4061047724082937e-03 0.0000000000000000e+00 
6.9950313644089532e-03 5.4061027656986584e-03 0.0000000000000000e+00 
4.3888507903364427e-03 4.1692963687538680e-03 0.0000000000000000e+00 
4.3888396385020796e-03 4.1693015222694380e-03 0.0000000000000000e+00 
6.9950449887349730e-03 5.4060970498450468e-03 -1.0183298127634404e-09 
4.3888467532786236e-03 4.1692920211963396e-03 -2.2978400306111032e-09 
6.8656760836315403e-03 -5.0874074322788364e-03 0.0000000000000000e+00 
6.8656699180303215e-03 -5.0874159257692838e-03 0.0000000000000000e+00 
4.2633760865339928e-03 -3.8748220316346580e-03 0.0000000000000000e+00 
4.2633465237725335e-03 -3.8748350029310014e-03 0.0000000000000000e+00 
6.8656804325708740e-03 -5.0874034129131749e-03 6.9132637060596358e-09 
4.2633673425544714e-03 -3.8748216876597881e-03 4.0282343015031178e-09 
1.4256408042370319e-02 7.8522720884810666e-03 0.0000000000000000e+00 
1.4256405470318690e-02 7.8522525003481558e-03 0.0000000000000000e+00 
1.0290511955705840e-02 6.6416777765554436e-03 0.0000000000000000e+00 
1.0290524704486863e-02 6.6416721583672953e-03 0.0000000000000000e+00 
1.4256399087697595e-02 7.8522693232706622e-03 -1.7431765770857156e-10 
1.0290512495388121e-02 6.6416709287937178e-03 -1.4902673585396092e-09 
1.4228344286543359e-02 -7.4066819576627608e-03 0.0000000000000000e+00 
1.4228361485001319e-02 -7.4066733299562489e-03 0.0000000000000000e+00 
1.0224364285413347e-02 -6.2722020167817506e-03 0.0000000000000000e+00 
1.0224375500841144e-02 -6.2722101740967998e-03 0.0000000000000000e+00 
1.4228346882566922e-02 -7.4066665356910880e-03 6.0727699379366911e-10 
1.0224373864504092e-02 -6.2721998675747074e-03 3.6409471787826058e-09 
2.4127403866538364e-02 1.0078203170786778e-02 0.0000000000000000e+00 
2.4127402575718000e-02 1.0078193701613638e-02 0.0000000000000000e+00 
1.8881863042433826e-02 9.0054000673183959e-03 0.0000000000000000e+00 
1.8881866559389116e-02 9.0053869633668661e-03 0.0000000000000000e+00 
2.4127411850144304e-02 1.0078208969400468e-02 2.4128742158329986e-09 
1.8881864642282833e-02 9.0054034313968162e-03 2.5687350859338057e-09 
2.3960828625935023e-02 -9.5778993819898590e-03 0.0000000000000000e+00 
2.3960834999829591e-02 -9.5778877400338382e-03 0.0000000000000000e+00 
1.8785213653332841e-02 -8.5068631156265759e-03 0.0000000000000000e+00 
1.8785213708484495e-02 -8.5068543781605006e-03 0.0000000000000000e+00 
2.3960827200371980e-02 -9.5778895223081299e-03 -1.5634747553396709e-09 
1.8785211544082334e-02 -8.5068556652011726e-03 -4.1116493888914580e-10 
3.6260152588701786e-02 1.2119025728481909e-02 0.0000000000000000e+00 
3.6260172939064292e-02 1.2119012390855522e-02 0.0000000000000000e+00 
2.9917312030907181e-02 1.1103930758241107e-02 0.0000000000000000e+00 
2.9917336095850129e-02 1.1103926227867553e-02 0.0000000000000000e+00 
3.6260161847662155e-02 1.2119022710257136e-02 5.0224683461988849e-09 
2.9917322640636942e-02 1.1103927407550758e-02 5.0177569792015950e-09 
3.6248509595232098e-02 -1.1524673708213612e-02 0.0000000000000000e+00 
3.6248538264342732e-02 -1.1524653748018199e-02 0.0000000000000000e+00 
2.9810827936958779e-02 -1.0601834172599143e-02 0.0000000000000000e+00 
2.9810844043774813e-02 -1.0601826854604127e-02 0.0000000000000000e+00 
3.6248518351142511e-02 -1.1524656284930808e-02 -3.0706388563323477e-09 
2.9810838316642174e-02 -1.0601825655723526e-02 -3.0176605663962259e-09 
5.0618140040994096e-02 1.3893304173942980e-02 0.0000000000000000e+00 
5.0618144028142020e-02 1.3893278933817707e-02 0.0000000000000000e+00 
4.3219153465150179e-02 1.3064926773139911e-02 0.0000000000000000e+00 
4.3219185431505672e-02 1.3064914414274178e-02 0.0000000000000000e+00 
5.0618148217986741e-02 1.3893291809462794e-02 3.4619550459241473e-09 
4.3219174183287100e-02 1.3064923224486194e-02 4.4790391097330480e-09 
5.0429587374393951e-02 -1.3089498917420447e-02 0.0000000000000000e+00 
5.0429595712857676e-02 -1.3089472172320354e-02 0.0000000000000000e+00 
4.3166701381705551e-02 -1.2330881650010240e-02 0.0000000000000000e+00 
4.3166721913102481e-02 -1.2330859925086493e-02 0.0000000000000000e+00 
5.0429582022038018e-02 -1.3089482581631945e-02 -2.6709324997737735e-09 
4.3166710974461411e-02 -1.2330870946151054e-02 -9.3986368567604445e-10 
6.6447640016175910e-02 1.5500847043274809e-02 0.0000000000000000e+00 
6.6447633525753835e-02 1.5500840259507348e-02 0.0000000000000000e+00 
5.8331943451441527e-02 1.4675746769354420e-02 0.0000000000000000e+00 
5.8331942823564423e-02 1.4675726789316036e-02 0.0000000000000000e+00 
6.6447624957047341e-02 1.5500844754707345e-02 3.7416510097424374e-09 
5.8331948340000085e-02 1.4675736564703671e-02 5.1036075077176095e-09 
6.6313930469571458e-02 -1.4715724160113698e-02 0.0000000000000000e+00 
6.6313925207950472e-02 -1.4715727030949042e-02 0.0000000000000000e+00 
5.8114791106863239e-02 -1.3886736222474504e-02 0.0000000000000000e+00 
5.8114794513701690e-02 -1.3886722699543327e-02 0.0000000000000000e+00 
6.6313915153523390e-02 -1.4715720445595167e-02 -1.2611918635750323e-09 
5.8114788679171102e-02 -1.3886733631709773e-02 -1.2021266701954509e-09 
8.4106880033643305e-02 1.7408778069355417e-02 0.0000000000000000e+00 
8.4106895601806370e-02 1.7408787241415518e-02 0.0000000000000000e+00 
7.4994098860486857e-02 1.6415142799878182e-02 0.0000000000000000e+00 
7.4994103854932367e-02 1.6415152960843872e-02 0.0000000000000000e+00 
8.4106892596431088e-02 1.7408786135381656e-02 5.2844105704501966e-09 
7.4994098529839626e-02 1.6415152456821083e-02 5.6124139418471595e-09 
8.3973927942748702e-02 -1.6494937602697383e-02 0.0000000000000000e+00 
8.3973949639693526e-02 -1.6494954014219562e-02 0.0000000000000000e+00 
7.4913199423807669e-02 -1.5565875397803165e-02 0.0000000000000000e+00 
7.4913200702204363e-02 -1.5565897627343854e-02 0.0000000000000000e+00 
8.3973933115814636e-02 -1.6494939223009975e-02 -5.4149349686007674e-09 
7.4913194500765182e-02 -1.5565884696848394e-02 -2.1510037710146046e-09 
1.0410854771417166e-01 1.9455869637884007e-02 0.0000000000000000e+00 
1.0410855211365611e-01 1.9455872058301009e-02 0.0000000000000000e+00 
9.3829420513635117e-02 1.8435532316542338e-02 0.0000000000000000e+00 
9.3829447838628011e-02 1.8435542601480809e-02 0.0000000000000000e+00 
1.0410855658219539e-01 1.9455880727678947e-02 2.7145634646851538e-09 
9.3829436268660443e-02 1.8435542373297236e-02 5.1224887533647802e-09 
1.0404259772881042e-01 -1.8510835814153373e-02 0.0000000000000000e+00 
1.0404261623698015e-01 -1.8510828441199997e-02 0.0000000000000000e+00 
9.3667396936928674e-02 -1.7513888596958658e-02 0.0000000000000000e+00 
9.3667426803775211e-02 -1.7513896698010335e-02 0.0000000000000000e+00 
1.0404261018806234e-01 -1.8510825355542437e-02 -1.3544281610100979e-09 
9.3667416606532716e-02 -1.7513893269821883e-02 -3.1389924863880454e-09 
1.2642228072315234e-01 2.1271208834133790e-02 0.0000000000000000e+00 
1.2642226732220713e-01 2.1271219117385630e-02 0.0000000000000000e+00 
1.1499002836691199e-01 2.0415612498584049e-02 0.0000000000000000e+00 
1.1499002753515358e-01 2.0415621016000050e-02 0.0000000000000000e+00 
1.2642227772843889e-01 2.1271210060486059e-02 -2.3190309224145861e-09 
1.1499003590571243e-01 2.0415621803694509e-02 1.4962022300121257e-09 
1.2635734487345857e-01 -2.0177320654861539e-02 0.0000000000000000e+00 
1.2635735705402143e-01 -2.0177319159768829e-02 0.0000000000000000e+00 
1.1499082820375102e-01 -1.9384936814197201e-02 0.0000000000000000e+00 
1.1499083684361140e-01 -1.9384932201641163e-02 0.0000000000000000e+00 
1.2635733181888076e-01 -2.0177306928448033e-02 6.0810131249544296e-10 
1.1499082882242996e-01 -1.9384927722094891e-02 9.7717511272410662e-10 
1.5045038898604154e-01 2.2687713218156380e-02 0.0000000000000000e+00 
1.5045040089610226e-01 2.2687721598076329e-02 0.0000000000000000e+00 
1.3825819407237666e-01 2.2012079124972102e-02 0.0000000000000000e+00 
1.3825819448812954e-01 2.2012094238480051e-02 0.0000000000000000e+00 
1.5045038477635253e-01 2.2687706761180211e-02 -2.0147786305336496e-09 
1.3825819383705484e-01 2.2012074811249161e-02 -1.6159996201902017e-09 
1.5033995021261420e-01 -2.1717684964778099e-02 0.0000000000000000e+00 
1.5033994748603907e-01 -2.1717676279653233e-02 0.0000000000000000e+00 
1.3810492156003029e-01 -2.0957381938408379e-02 0.0000000000000000e+00 
1.3810492059568832e-01 -2.0957381990025732e-02 0.0000000000000000e+00 
1.5033994386674029e-01 -2.1717672388725122e-02 3.3996465569954401e-09 
1.3810491620974130e-01 -2.0957379024276995e-02 4.5751457408094962e-09 
1.7601494875462848e-01 2.3885401448665640e-02 0.0000000000000000e+00 
1.7601494633232040e-01 2.3885397912321013e-02 0.0000000000000000e+00 
1.6303891389380831e-01 2.3315393128791613e-02 0.0000000000000000e+00 
1.6303892621539778e-01 2.3315395285488434e-02 0.0000000000000000e+00 
1.7601496110139703e-01 2.3885396445396962e-02 -3.9577767247003904e-09 
1.6303891653517966e-01 2.3315393214273752e-02 -3.2434653329576160e-09 
1.7601068698416086e-01 -2.2933382404694988e-02 0.0000000000000000e+00 
1.7601069641472622e-01 -2.2933365711247225e-02 0.0000000000000000e+00 
1.6303329021148194e-01 -2.2376832420491950e-02 0.0000000000000000e+00 
1.6303328908513887e-01 -2.2376825499646022e-02 0.0000000000000000e+00 
1.7601067994686415e-01 -2.2933360925790302e-02 1.9105391099182939e-09 
1.6303329008040293e-01 -2.2376821159548466e-02 5.7230314409747650e-09 
2.0284271630033759e-01 2.4736479928476052e-02 0.0000000000000000e+00 
2.0284272426084185e-01 2.4736463400202045e-02 0.0000000000000000e+00 
1.8932051797467941e-01 2.4361065519946878e-02 0.0000000000000000e+00 
1.8932053282941144e-01 2.4361056956701276e-02 0.0000000000000000e+00 
2.0284271097919224e-01 2.4736472734102656e-02 2.6462632358845894e-09 
1.8932053202036792e-01 2.4361052521162017e-02 9.7710241635051005e-10 
2.0276525331869175e-01 -2.3808338548823162e-02 0.0000000000000000e+00 
2.0276525657925262e-01 -2.3808313367335410e-02 0.0000000000000000e+00 
1.8924749046628314e-01 -2.3410403023856940e-02 0.0000000000000000e+00 
1.8924750377267374e-01 -2.3410379626723633e-02 0.0000000000000000e+00 
2.0276525525801520e-01 -2.3808309523427912e-02 -1.7081571229034127e-09 
1.8924749655916029e-01 -2.3410384440262718e-02 8.8842463174103990e-10 
2.3022604457921786e-01 2.5320592970040474e-02 0.0000000000000000e+00 
2.3022604722424891e-01 2.5320575729224144e-02 0.0000000000000000e+00 
2.1645868339859570e-01 2.5042115153665868e-02 0.0000000000000000e+00 
2.1645868970622359e-01 2.5042103121587403e-02 0.0000000000000000e+00 
2.3022605286291259e-01 2.5320595278087644e-02 2.0034522487505272e-09 
2.1645869229015557e-01 2.5042116617252079e-02 3.9967756742018859e-09 
2.3025225625097900e-01 -2.4301437282373682e-02 0.0000000000000000e+00 
2.3025225325760945e-01 -2.4301427490018398e-02 0.0000000000000000e+00 
2.1646687500758710e-01 -2.4085969281127308e-02 0.0000000000000000e+00 
2.1646686943703003e-01 -2.4085949000606260e-02 0.0000000000000000e+00 
2.3025225646821745e-01 -2.4301422761106681e-02 -6.7409930362598588e-10 
2.1646687774035142e-01 -2.4085950848168135e-02 5.8665211268440646e-10 
2.5821285273914524e-01 2.5742791718343393e-02 0.0000000000000000e+00 
2.5821283773472603e-01 2.5742772683444229e-02 0.0000000000000000e+00 
2.4417817970960895e-01 2.5553585006840226e-02 0.0000000000000000e+00 
2.4417818295247926e-01 2.5553563572012456e-02 0.0000000000000000e+00 
2.5821285906139541e-01 2.5742788028005174e-02 -2.4091225335589611e-09 
2.4417819275047112e-01 2.5553586490858080e-02 4.2689215410387393e-10 
2.5810813917182152e-01 -2.4814568735062326e-02 0.0000000000000000e+00 
2.5810813360167306e-01 -2.4814552738329339e-02 0.0000000000000000e+00 
2.4410235894110199e-01 -2.4542215440768504e-02 0.0000000000000000e+00 
2.4410235975157329e-01 -2.4542201117372729e-02 0.0000000000000000e+00 
2.5810813451061565e-01 -2.4814554592591881e-02 2.2959059026773211e-09 
2.4410236021447948e-01 -2.4542207065469120e-02 2.2399175562182557e-09 
2.8656984721897116e-01 2.6023136931541783e-02 0.0000000000000000e+00 
2.8656983688516513e-01 2.6023134793684701e-02 0.0000000000000000e+00 
2.7232412489906599e-01 2.5905534305609913e-02 0.0000000000000000e+00 
2.7232410926240858e-01 2.5905522965950445e-02 0.0000000000000000e+00 
2.8656984182605982e-01 2.6023135142918263e-02 -2.8797168461910532e-09 
2.7232412640642645e-01 2.5905527994499342e-02 -3.3581005918707709e-09 
2.8660534651596642e-01 -2.5143797679688638e-02 0.0000000000000000e+00 
2.8660534525032011e-01 -2.5143795355756123e-02 0.0000000000000000e+00 
2.7231357644061194e-01 -2.5035729534109218e-02 0.0000000000000000e+00 
2.7231356772099280e-01 -2.5035726393755252e-02 0.0000000000000000e+00 
2.8660532968830921e-01 -2.5143797395424702e-02 -2.0501090038829956e-09 
2.7231356308436011e-01 -2.5035724067420759e-02 8.5212607393587104e-10 
3.1515249966514247e-01 2.6045434575940621e-02 0.0000000000000000e+00 
3.1515251432089209e-01 2.6045405727224503e-02 0.0000000000000000e+00 
3.0088391663909830e-01 2.6047580161570227e-02 0.0000000000000000e+00 
3.0088392923044838e-01 2.6047565228358049e-02 0.0000000000000000e+00 
3.1515250575084164e-01 2.6045428014547678e-02 -1.8720936231012357e-09 
3.0088391873717857e-01 2.6047577896937228e-02 -1.4550198197239341e-09 
3.1510923884331882e-01 -2.5141339838875849e-02 0.0000000000000000e+00 
3.1510924134258123e-01 -2.5141318399294614e-02 0.0000000000000000e+00 
3.0087874535608461e-01 -2.5153880889971943e-02 0.0000000000000000e+00 
3.0087876052025797e-01 -2.5153872402783252e-02 0.0000000000000000e+00 
3.1510923983777139e-01 -2.5141333781708994e-02 -1.9246184978678153e-09 
3.0087875111245488e-01 -2.5153885292389665e-02 -4.0473669805271776e-10 
3.4359029664706947e-01 2.6069323123404819e-02 0.0000000000000000e+00 
3.4360715254009422e-01 9.0328990902894118e-03 0.0000000000000000e+00 
3.4359022498263414e-01 2.6069244869441281e-02 0.0000000000000000e+00 
3.4360710170678499e-01 9.0328951306653700e-03 0.0000000000000000e+00 
3.2938330931233273e-01 2.6059315926989922e-02 0.0000000000000000e+00 
3.4359560375738524e-01 1.7550449575420280e-02 0.0000000000000000e+00 
3.2938330271112887e-01 2.6059261581011572e-02 0.0000000000000000e+00 
3.4359554680764604e-01 1.7550419427343922e-02 0.0000000000000000e+00 
3.4359026380409158e-01 2.6069292450975289e-02 -3.2806403384609455e-09 
3.4360713078164185e-01 9.0329009188570633e-03 2.2970909412632297e-09 
3.2938330735953891e-01 2.6059292922077242e-02 -1.7598708705554516e-09 
3.4359557810033126e-01 1.7550439481708858e-02 2.0276440632559576e-09 
3.4364574838053374e-01 -8.0368645656480591e-03 0.0000000000000000e+00 
3.4364571037780134e-01 -8.0368522754960883e-03 0.0000000000000000e+00 
3.4362418013546481e-01 5.0793132409086177e-04 0.0000000000000000e+00 
3.4362413473887132e-01 5.0793699039609777e-04 0.0000000000000000e+00 
3.4364573420763322e-01 -8.0368599159303215e-03 -1.8807901048391816e-09 
3.4362415903834187e-01 5.0793361831619915e-04 2.4153037081143958e-09 
3.4367699786089523e-01 -2.5177490364571654e-02 0.0000000000000000e+00 
3.4367694297077250e-01 -2.5177457234396405e-02 0.0000000000000000e+00 
3.2937739398291538e-01 -2.5158324685557582e-02 0.0000000000000000e+00 
3.4366601078737846e-01 -1.6598559827343519e-02 0.0000000000000000e+00 
3.2937738120045712e-01 -2.5158290485058812e-02 0.0000000000000000e+00 
3.4366596508565955e-01 -1.6598539272368339e-02 0.0000000000000000e+00 
3.4367698221625675e-01 -2.5177476898453802e-02 -2.1702373042063748e-09 
3.2937738379940035e-01 -2.5158312940653023e-02 6.2131158451493894e-10 
3.4366598967722728e-01 -1.6598551094963280e-02 -2.8953220117287917e-09 

VECTORS Stress float
1.8595385054052528e+02 -8.0810511953443438e+00 3.9582937231436732e-12 
1.8735839327608079e+02 -1.0733895307166563e+01 4.8551250158028139e-12 
1.8595385054052528e+02 -8.0810511953443438e+00 3.9582937231436732e-12 
1.8735839327608079e+02 -1.0733895307166563e+01 4.8551250158028139e-12 
1.8716651860272447e+02 -8.0431437369936702e+00 4.2127157882263359e-12 
1.8716651860272447e+02 -8.0431437369936702e+00 4.2127157882263359e-12 
1.8595385054052528e+02 -8.0810511953443438e+00 3.9582937231436732e-12 
1.8735839327608079e+02 -1.0733895307166563e+01 4.8551250158028139e-12 
1.8716651860272447e+02 -8.0431437369936702e+00 4.2127157882263359e-12 
-7.4029680422272975e+01 5.5224149465951200e+00 -2.2930188415599713e-12 
-7.7012598327727972e+01 4.5422376440124026e+00 -3.8921825670363311e-12 
-7.4029680422272975e+01 5.5224149465951200e+00 -2.2930188415599713e-12 
-7.7012598327727972e+01 4.5422376440124026e+00 -3.8921825670363311e-12 
-7.6384356962233596e+01 3.7574648690732602e+00 -2.8663926223388580e-12 
-7.6384356962233596e+01 3.7574648690732602e+00 -2.8663926223388580e-12 
-7.4029680422272975e+01 5.5224149465951200e+00 -2.2930188415599713e-12 
-7.7012598327727972e+01 4.5422376440124026e+00 -3.8921825670363311e-12 
-7.6384356962233596e+01 3.7574648690732602e+00 -2.8663926223388580e-12 
1.8681230558386255e+02 -1.9129087964829750e+01 5.0407862920287071e-12 
1.8681230558386255e+02 -1.9129087964829750e+01 5.0407862920287071e-12 
1.8713498243599440e+02 -1.4813665437253121e+01 5.4923754880520900e-12 
1.8713498243599440e+02 -1.4813665437253121e+01 5.4923754880520900e-12 
1.8681230558386255e+02 -1.9129087964829750e+01 5.0407862920287071e-12 
1.8713498243599440e+02 -1.4813665437253121e+01 5.4923754880520900e-12 
-7.6559479880203980e+01 8.6027379051708976e+00 -4.9853385718761575e-12 
-7.6559479880203980e+01 8.6027379051708976e+00 -4.9853385718761575e-12 
-7.6824047998376386e+01 6.5473465491763818e+00 -4.9587647129787248e-12 
-7.6824047998376386e+01 6.5473465491763818e+00 -4.9587647129787248e-12 
-7.6559479880203980e+01 8.6027379051708976e+00 -4.9853385718761575e-12 
-7.6824047998376386e+01 6.5473465491763818e+00 -4.9587647129787248e-12 
1.8582768764410275e+02 -2.7516924996773469e+01 1.2806992505172488e-12 
1.8582768764410275e+02 -2.7516924996773469e+01 1.2806992505172488e-12 
1.8635450594881354e+02 -2.3413576667250709e+01 3.2266409590515137e-12 
1.8635450594881354e+02 -2.3413576667250709e+01 3.2266409590515137e-12 
1.8582768764410275e+02 -2.7516924996773469e+01 1.2806992505172488e-12 
1.8635450594881354e+02 -2.3413576667250709e+01 3.2266409590515137e-12 
-7.6363920999411334e+01 1.2277014830111966e+01 -1.8603850946802721e-12 
-7.6363920999411334e+01 1.2277014830111966e+01 -1.8603850946802721e-12 
-7.6395838338708586e+01 1.0495231647407081e+01 -3.6232798453880490e-12 
-7.6395838338708586e+01 1.0495231647407081e+01 -3.6232798453880490e-12 
-7.6363920999411334e+01 1.2277014830111966e+01 -1.8603850946802721e-12 
-7.6395838338708586e+01 1.0495231647407081e+01 -3.6232798453880490e-12 
1.8363596841719016e+02 -3.4965949847892944e+01 -1.5376841347359824e-12 
1.8363596841719016e+02 -3.4965949847892944e+01 -1.5376841347359824e-12 
1.8480980410296900e+02 -3.1328765266450773e+01 -2.8657150005075015e-13 
1.8480980410296900e+02 -3.1328765266450773e+01 -2.8657150005075015e-13 
1.8363596841719016e+02 -3.4965949847892944e+01 -1.5376841347359824e-12 
1.8480980410296900e+02 -3.1328765266450773e+01 -2.8657150005075015e-13 
-7.5896627850678669e+01 1.5737513272556953e+01 1.8086081673668291e-12 
-7.5896627850678669e+01 1.5737513272556953e+01 1.8086081673668291e-12 
-7.6082495182167804e+01 1.4031128044446859e+01 6.4935691180031891e-14 
-7.6082495182167804e+01 1.4031128044446859e+01 6.4935691180031891e-14 
-7.5896627850678669e+01 1.5737513272556953e+01 1.8086081673668291e-12 
-7.6082495182167804e+01 1.4031128044446859e+01 6.4935691180031891e-14 
1.8019055081945680e+02 -4.1645223062334480e+01 -1.9914147213430274e-12 
1.8019055081945680e+02 -4.1645223062334480e+01 -1.9914147213430274e-12 
1.8205556270302679e+02 -3.8416439122689098e+01 -2.0332519767993367e-12 
1.8205556270302679e+02 -3.8416439122689098e+01 -2.0332519767993367e-12 
1.8019055081945680e+02 -4.1645223062334480e+01 -1.9914147213430274e-12 
1.8205556270302679e+02 -3.8416439122689098e+01 -2.0332519767993367e-12 
-7.5299087332285126e+01 1.8534591331782394e+01 2.2758824431640344e-12 
-7.5299087332285126e+01 1.8534591331782394e+01 2.2758824431640344e-12 
-7.5614972917971045e+01 1.7212201230120627e+01 2.4858508670549359e-12 
-7.5614972917971045e+01 1.7212201230120627e+01 2.4858508670549359e-12 
-7.5299087332285126e+01 1.8534591331782394e+01 2.2758824431640344e-12 
-7.5614972917971045e+01 1.7212201230120627e+01 2.4858508670549359e-12 
1.7610999222303451e+02 -4.6282128370699411e+01 -1.9485991240648161e-12 
1.7610999222303451e+02 -4.6282128370699411e+01 -1.9485991240648161e-12 
1.7825090504588604e+02 -4.4380630172614019e+01 -1.9245937854003597e-12 
1.7825090504588604e+02 -4.4380630172614019e+01 -1.9245937854003597e-12 
1.7610999222303451e+02 -4.6282128370699411e+01 -1.9485991240648161e-12 
1.7825090504588604e+02 -4.4380630172614019e+01 -1.9245937854003597e-12 
-7.4525740161912381e+01 2.0814081280404480e+01 1.4852557236442252e-12 
-7.4525740161912381e+01 2.0814081280404480e+01 1.4852557236442252e-12 
-7.5008592889754027e+01 1.9778678144459263e+01 1.8711875537770275e-12 
-7.5008592889754027e+01 1.9778678144459263e+01 1.8711875537770275e-12 
-7.4525740161912381e+01 2.0814081280404480e+01 1.4852557236442252e-12 
-7.5008592889754027e+01 1.9778678144459263e+01 1.8711875537770275e-12 
1.7132989377188323e+02 -4.9823504953423253e+01 -2.6772574647909030e-12 
1.7132989377188323e+02 -4.9823504953423253e+01 -2.6772574647909030e-12 
1.7392538000469790e+02 -4.8008217118603170e+01 -2.1276269225895336e-12 
1.7392538000469790e+02 -4.8008217118603170e+01 -2.1276269225895336e-12 
1.7132989377188323e+02 -4.9823504953423253e+01 -2.6772574647909030e-12 
1.7392538000469790e+02 -4.8008217118603170e+01 -2.1276269225895336e-12 
-7.3446721337911868e+01 2.2932754350933465e+01 1.6652197735309304e-12 
-7.3446721337911868e+01 2.2932754350933465e+01 1.6652197735309304e-12 
-7.4101858908341569e+01 2.1895354214549570e+01 1.2994594378874338e-12 
-7.4101858908341569e+01 2.1895354214549570e+01 1.2994594378874338e-12 
-7.3446721337911868e+01 2.2932754350933465e+01 1.6652197735309304e-12 
-7.4101858908341569e+01 2.1895354214549570e+01 1.2994594378874338e-12 
1.6540848128959988e+02 -5.3861578422697676e+01 -3.0795794426326369e-12 
1.6540848128959988e+02 -5.3861578422697676e+01 -3.0795794426326369e-12 
1.6852054320500861e+02 -5.1792166642595475e+01 -3.2547962983563159e-12 
1.6852054320500861e+02 -5.1792166642595475e+01 -3.2547962983563159e-12 
1.6540848128959988e+02 -5.3861578422697676e+01 -3.0795794426326369e-12 
1.6852054320500861e+02 -5.1792166642595475e+01 -3.2547962983563159e-12 
-7.1938393682424930e+01 2.5257663272360332e+01 2.3703606446697196e-12 
-7.1938393682424930e+01 2.5257663272360332e+01 2.3703606446697196e-12 
-7.2756435497140160e+01 2.4033257524722558e+01 2.2614407412534699e-12 
-7.2756435497140160e+01 2.4033257524722558e+01 2.2614407412534699e-12 
-7.1938393682424930e+01 2.5257663272360332e+01 2.3703606446697196e-12 
-7.2756435497140160e+01 2.4033257524722558e+01 2.2614407412534699e-12 
1.5836105956337462e+02 -5.8053200230905077e+01 -5.4078711317239657e-13 
1.5836105956337462e+02 -5.8053200230905077e+01 -5.4078711317239657e-13 
1.6192356147487590e+02 -5.5981291001963200e+01 -1.9382388731569905e-12 
1.6192356147487590e+02 -5.5981291001963200e+01 -1.9382388731569905e-12 
1.5836105956337462e+02 -5.8053200230905077e+01 -5.4078711317239657e-13 
1.6192356147487590e+02 -5.5981291001963200e+01 -1.9382388731569905e-12 
-6.9924097848275665e+01 2.7845811251924715e+01 6.3399290815899600e-13 
-6.9924097848275665e+01 2.7845811251924715e+01 6.3399290815899600e-13 
-7.0909498169387916e+01 2.6582135407034002e+01 1.7079784587036599e-12 
-7.0909498169387916e+01 2.6582135407034002e+01 1.7079784587036599e-12 
-6.9924097848275665e+01 2.7845811251924715e+01 6.3399290815899600e-13 
-7.0909498169387916e+01 2.6582135407034002e+01 1.7079784587036599e-12 
1.5089340200799950e+02 -6.1019664676169668e+01 2.4371573018216946e-12 
1.5089340200799950e+02 -6.1019664676169668e+01 2.4371573018216946e-12 
1.5461534090108148e+02 -5.9629665854432915e+01 1.0295791520081357e-12 
1.5461534090108148e+02 -5.9629665854432915e+01 1.0295791520081357e-12 
1.5089340200799950e+02 -6.1019664676169668e+01 2.4371573018216946e-12 
1.5461534090108148e+02 -5.9629665854432915e+01 1.0295791520081357e-12 
-6.7777694819543740e+01 2.9152618541067113e+01 -2.8676203952505891e-12 
-6.7777694819543740e+01 2.9152618541067113e+01 -2.8676203952505891e-12 
-6.8845707991511063e+01 2.8533185676070616e+01 -1.1113802760143555e-12 
-6.8845707991511063e+01 2.8533185676070616e+01 -1.1113802760143555e-12 
-6.7777694819543740e+01 2.9152618541067113e+01 -2.8676203952505891e-12 
-6.8845707991511063e+01 2.8533185676070616e+01 -1.1113802760143555e-12 
1.4360614161675562e+02 -6.2387512868354634e+01 2.7322907996468883e-12 
1.4360614161675562e+02 -6.2387512868354634e+01 2.7322907996468883e-12 
1.4722342968678618e+02 -6.1893698806905604e+01 2.9695292676966521e-12 
1.4722342968678618e+02 -6.1893698806905604e+01 2.9695292676966521e-12 
1.4360614161675562e+02 -6.2387512868354634e+01 2.7322907996468883e-12 
1.4722342968678618e+02 -6.1893698806905604e+01 2.9695292676966521e-12 
-6.5308111116626037e+01 3.0054698702055703e+01 -3.3492052925908432e-12 
-6.5308111116626037e+01 3.0054698702055703e+01 -3.3492052925908432e-12 
-6.6592937893296607e+01 2.9634380014186718e+01 -3.5772500881863563e-12 
-6.6592937893296607e+01 2.9634380014186718e+01 -3.5772500881863563e-12 
-6.5308111116626037e+01 3.0054698702055703e+01 -3.3492052925908432e-12 
-6.6592937893296607e+01 2.9634380014186718e+01 -3.5772500881863563e-12 
1.3631934015584795e+02 -6.2776211703507670e+01 5.9888813285648413e-13 
1.3631934015584795e+02 -6.2776211703507670e+01 5.9888813285648413e-13 
1.3999855173523338e+02 -6.2736906098952204e+01 1.9956180382053173e-12 
1.3999855173523338e+02 -6.2736906098952204e+01 1.9956180382053173e-12 
1.3631934015584795e+02 -6.2776211703507670e+01 5.9888813285648413e-13 
1.3999855173523338e+02 -6.2736906098952204e+01 1.9956180382053173e-12 
-6.2625950278240794e+01 3.0263277686580068e+01 -1.4934669462251992e-12 
-6.2625950278240794e+01 3.0263277686580068e+01 -1.4934669462251992e-12 
-6.3997941498417390e+01 3.0371859471342077e+01 -2.6662724754089147e-12 
-6.3997941498417390e+01 3.0371859471342077e+01 -2.6662724754089147e-12 
-6.2625950278240794e+01 3.0263277686580068e+01 -1.4934669462251992e-12 
-6.3997941498417390e+01 3.0371859471342077e+01 -2.6662724754089147e-12 
1.2919106655281962e+02 -6.2031130745252085e+01 -1.2579631922841314e-12 
1.2919106655281962e+02 -6.2031130745252085e+01 -1.2579631922841314e-12 
1.3268261643715641e+02 -6.2707090018936015e+01 -7.5317816242444179e-13 
1.3268261643715641e+02 -6.2707090018936015e+01 -7.5317816242444179e-13 
1.2919106655281962e+02 -6.2031130745252085e+01 -1.2579631922841314e-12 
1.3268261643715641e+02 -6.2707090018936015e+01 -7.5317816242444179e-13 
-5.9751613009626510e+01 2.9648015674806402e+01 -5.8743026270495076e-13 
-5.9751613009626510e+01 2.9648015674806402e+01 -5.8743026270495076e-13 
-6.1224656881303417e+01 3.0129334383630521e+01 -5.0652850354728914e-13 
-6.1224656881303417e+01 3.0129334383630521e+01 -5.0652850354728914e-13 
-5.9751613009626510e+01 2.9648015674806402e+01 -5.8743026270495076e-13 
-6.1224656881303417e+01 3.0129334383630521e+01 -5.0652850354728914e-13 
1.2227235566137250e+02 -6.0026258449695888e+01 -6.7252366777654165e-13 
1.2227235566137250e+02 -6.0026258449695888e+01 -6.7252366777654165e-13 
1.2574524977615999e+02 -6.1090314280213306e+01 -1.1817203617247639e-12 
1.2574524977615999e+02 -6.1090314280213306e+01 -1.1817203617247639e-12 
1.2227235566137250e+02 -6.0026258449695888e+01 -6.7252366777654165e-13 
1.2574524977615999e+02 -6.1090314280213306e+01 -1.1817203617247639e-12 
-5.6649141052167550e+01 2.8690217744330653e+01 -1.2937311838007112e-12 
-5.6649141052167550e+01 2.8690217744330653e+01 -1.2937311838007112e-12 
-5.8225562379784719e+01 2.9135447379722905e+01 -1.1083552558006481e-12 
-5.8225562379784719e+01 2.9135447379722905e+01 -1.1083552558006481e-12 
-5.6649141052167550e+01 2.8690217744330653e+01 -1.2937311838007112e-12 
-5.8225562379784719e+01 2.9135447379722905e+01 -1.1083552558006481e-12 
1.1437475905192389e+02 -5.7244486421161355e+01 8.3686023687342469e-13 
1.1437475905192389e+02 -5.7244486421161355e+01 8.3686023687342469e-13 
1.1862199338675072e+02 -5.8777872835788003e+01 1.6280823943116177e-13 
1.1862199338675072e+02 -5.8777872835788003e+01 1.6280823943116177e-13 
1.1437475905192389e+02 -5.7244486421161355e+01 8.3686023687342469e-13 
1.1862199338675055e+02 -5.8777872835787548e+01 1.6280823943112946e-13 
-5.3406977479240425e+01 2.7577829738595540e+01 -6.5349474782926501e-13 
-5.3406977479240425e+01 2.7577829738595540e+01 -6.5349474782926501e-13 
-5.5034320167363461e+01 2.8222562924116914e+01 -9.9589246827400171e-13 
-5.5034320167363461e+01 2.8222562924116914e+01 -9.9589246827400171e-13 
-5.3406977479240425e+01 2.7577829738595540e+01 -6.5349474782926501e-13 
-5.5034320167364086e+01 2.8222562924117256e+01 -9.9589246827397262e-13 
1.0410831939342825e+02 -5.2738425468190087e+01 4.7050391795856880e-13 
1.0410831939342825e+02 -5.2738425468190087e+01 4.7050391795856880e-13 
1.0902659794576937e+02 -5.4805279607065643e+01 8.2199784524500870e-13 
1.0902659794576937e+02 -5.4805279607065643e+01 8.2199784524500870e-13 
1.0410831939342825e+02 -5.2738425468190087e+01 4.7050391795856880e-13 
1.0902659794576937e+02 -5.4805279607065643e+01 8.2199784524500870e-13 
-5.0123516392643324e+01 2.5296966368294591e+01 -6.0365334802297379e-13 
-5.0123516392643324e+01 2.5296966368294591e+01 -6.0365334802297379e-13 
-5.1712444145357523e+01 2.6084995367638385e+01 -5.3150282599072844e-13 
-5.1712444145357523e+01 2.6084995367638385e+01 -5.3150282599072844e-13 
-5.0123516392643324e+01 2.5296966368294591e+01 -6.0365334802297379e-13 
-5.1712444145357523e+01 2.6084995367638385e+01 -5.3150282599072844e-13 
1.0224737632490476e+02 -5.3881825155171896e+01 -3.9709314497793011e-13 
1.0224737632490476e+02 -5.3881825155171896e+01 -3.9709314497793011e-13 
1.0388307391617704e+02 -5.3715904749029505e+01 1.9779014313386676e-15 
1.0388307391617704e+02 -5.3715904749029505e+01 1.9779014313386676e-15 
1.0224737632490476e+02 -5.3881825155171896e+01 -3.9709314497793011e-13 
1.0388307391617721e+02 -5.3715904749029391e+01 1.9779014313887508e-15 
-4.8966167864822509e+01 3.1338398812362463e+01 -1.1602687112693759e-12 
-4.8966167864822509e+01 3.1338398812362463e+01 -1.1602687112693759e-12 
-4.9386336900965951e+01 2.8461266749618545e+01 -8.8106049824366733e-13 
-4.9386336900965951e+01 2.8461266749618545e+01 -8.8106049824366733e-13 
-4.8966167864822509e+01 3.1338398812362463e+01 -1.1602687112693759e-12 
-4.9386336900965858e+01 2.8461266749618346e+01 -8.8106049824368389e-13 
3.1301376092569768e+01 -3.7168796781411970e+00 -8.7945799797046554e-15 
-5.7498942757906377e+00 -1.2856586030068513e+00 -5.5746529375754394e-15 
3.1301376092569768e+01 -3.7168796781411970e+00 -8.7945799797046554e-15 
-5.7498942757906377e+00 -1.2856586030068513e+00 -5.5746529375754394e-15 
7.9731298075874946e+01 -3.8525900192792164e+01 -4.5304918438656842e-13 
3.3912741450969008e+00 6.4495291013566884e+00 9.7280255601489705e-17 
7.9731298075874946e+01 -3.8525900192792164e+01 -4.5304918438656842e-13 
3.3912741450969008e+00 6.4495291013566884e+00 9.7280255601489705e-17 
3.1301376092569768e+01 -3.7168796781411970e+00 -8.7945799797046554e-15 
-5.7498942757906377e+00 -1.2856586030068513e+00 -5.5746529375754394e-15 
7.9731298075874946e+01 -3.8525900192792164e+01 -4.5304918438656842e-13 
3.3912741450969008e+00 6.4495291013566884e+00 9.7280255601489705e-17 
-8.6946472888553732e+00 -2.5288464307562819e+01 3.6710933197383984e-14 
-8.6946472888553732e+00 -2.5288464307562819e+01 3.6710933197383984e-14 
-7.5634004286285688e+00 -1.4601480525002813e+01 -1.7591744041109945e-16 
-7.5634004286285688e+00 -1.4601480525002813e+01 -1.7591744041109945e-16 
-8.6946472888553732e+00 -2.5288464307562819e+01 3.6710933197383984e-14 
-7.5634004286285688e+00 -1.4601480525002813e+01 -1.7591744041109945e-16 
-3.5413221123719687e+01 -1.5999114982277057e+01 -2.6608613599317795e-13 
-3.5413221123719687e+01 -1.5999114982277057e+01 -2.6608613599317795e-13 
-4.4078172805312732e+01 1.8108616519725143e+01 -1.0074657202777647e-12 
-1.4984492748190327e+01 -2.8843113975880122e+01 8.2275101091110124e-17 
-4.4078172805312732e+01 1.8108616519725143e+01 -1.0074657202777647e-12 
-1.4984492748190327e+01 -2.8843113975880122e+01 8.2275101091110124e-17 
-3.5413221123719687e+01 -1.5999114982277057e+01 -2.6608613599317795e-13 
-4.4078172805312732e+01 1.8108616519725143e+01 -1.0074657202777647e-12 
-1.4984492748190334e+01 -2.8843113975880147e+01 8.2275101088282846e-17 

