# vtk DataFile Version 2.0

ASCII

DATASET UNSTRUCTURED_GRID

POINTS 237 float 

-5.0000000000000003e-02  0.0000000000000000e+00  0.0000000000000000e+00
-5.0000000000000003e-02  5.5555555555555552e-02  0.0000000000000000e+00
-5.0000000000000003e-02  0.0000000000000000e+00  2.9999999999999999e-01
-5.0000000000000003e-02  5.5555555555555552e-02  2.9999999999999999e-01
-5.0000000000000003e-02  2.7777777777777776e-02  0.0000000000000000e+00
-5.0000000000000003e-02  2.7777777777777776e-02  2.9999999999999999e-01
-5.0000000000000003e-02  0.0000000000000000e+00  1.4999999999999999e-01
-5.0000000000000003e-02  5.5555555555555552e-02  1.4999999999999999e-01
-5.0000000000000003e-02  2.7777777777777776e-02  1.4999999999999999e-01
5.0000000000000003e-02  0.0000000000000000e+00  0.0000000000000000e+00
5.0000000000000003e-02  5.5555555555555552e-02  0.0000000000000000e+00
5.0000000000000003e-02  0.0000000000000000e+00  2.9999999999999999e-01
5.0000000000000003e-02  5.5555555555555552e-02  2.9999999999999999e-01
5.0000000000000003e-02  2.7777777777777776e-02  0.0000000000000000e+00
5.0000000000000003e-02  2.7777777777777776e-02  2.9999999999999999e-01
5.0000000000000003e-02  0.0000000000000000e+00  1.4999999999999999e-01
5.0000000000000003e-02  5.5555555555555552e-02  1.4999999999999999e-01
5.0000000000000003e-02  2.7777777777777776e-02  1.4999999999999999e-01
-5.0000000000000003e-02  1.1111111111111110e-01  0.0000000000000000e+00
-5.0000000000000003e-02  1.1111111111111110e-01  2.9999999999999999e-01
-5.0000000000000003e-02  8.3333333333333329e-02  0.0000000000000000e+00
-5.0000000000000003e-02  8.3333333333333329e-02  2.9999999999999999e-01
-5.0000000000000003e-02  1.1111111111111110e-01  1.4999999999999999e-01
-5.0000000000000003e-02  8.3333333333333329e-02  1.4999999999999999e-01
5.0000000000000003e-02  1.1111111111111110e-01  0.0000000000000000e+00
5.0000000000000003e-02  1.1111111111111110e-01  2.9999999999999999e-01
5.0000000000000003e-02  8.3333333333333329e-02  0.0000000000000000e+00
5.0000000000000003e-02  8.3333333333333329e-02  2.9999999999999999e-01
5.0000000000000003e-02  1.1111111111111110e-01  1.4999999999999999e-01
5.0000000000000003e-02  8.3333333333333329e-02  1.4999999999999999e-01
-5.0000000000000003e-02  1.6666666666666666e-01  0.0000000000000000e+00
-5.0000000000000003e-02  1.6666666666666666e-01  2.9999999999999999e-01
-5.0000000000000003e-02  1.3888888888888890e-01  0.0000000000000000e+00
-5.0000000000000003e-02  1.3888888888888890e-01  2.9999999999999999e-01
-5.0000000000000003e-02  1.6666666666666666e-01  1.4999999999999999e-01
-5.0000000000000003e-02  1.3888888888888890e-01  1.4999999999999999e-01
5.0000000000000003e-02  1.6666666666666666e-01  0.0000000000000000e+00
5.0000000000000003e-02  1.6666666666666666e-01  2.9999999999999999e-01
5.0000000000000003e-02  1.3888888888888890e-01  0.0000000000000000e+00
5.0000000000000003e-02  1.3888888888888890e-01  2.9999999999999999e-01
5.0000000000000003e-02  1.6666666666666666e-01  1.4999999999999999e-01
5.0000000000000003e-02  1.3888888888888890e-01  1.4999999999999999e-01
-5.0000000000000003e-02  2.2222222222222221e-01  0.0000000000000000e+00
-5.0000000000000003e-02  2.2222222222222221e-01  2.9999999999999999e-01
-5.0000000000000003e-02  1.9444444444444442e-01  0.0000000000000000e+00
-5.0000000000000003e-02  1.9444444444444442e-01  2.9999999999999999e-01
-5.0000000000000003e-02  2.2222222222222221e-01  1.4999999999999999e-01
-5.0000000000000003e-02  1.9444444444444442e-01  1.4999999999999999e-01
5.0000000000000003e-02  2.2222222222222221e-01  0.0000000000000000e+00
5.0000000000000003e-02  2.2222222222222221e-01  2.9999999999999999e-01
5.0000000000000003e-02  1.9444444444444442e-01  0.0000000000000000e+00
5.0000000000000003e-02  1.9444444444444442e-01  2.9999999999999999e-01
5.0000000000000003e-02  2.2222222222222221e-01  1.4999999999999999e-01
5.0000000000000003e-02  1.9444444444444442e-01  1.4999999999999999e-01
-5.0000000000000003e-02  2.7777777777777779e-01  0.0000000000000000e+00
-5.0000000000000003e-02  2.7777777777777779e-01  2.9999999999999999e-01
-5.0000000000000003e-02  2.5000000000000000e-01  0.0000000000000000e+00
-5.0000000000000003e-02  2.5000000000000000e-01  2.9999999999999999e-01
-5.0000000000000003e-02  2.7777777777777779e-01  1.4999999999999999e-01
-5.0000000000000003e-02  2.5000000000000000e-01  1.4999999999999999e-01
5.0000000000000003e-02  2.7777777777777779e-01  0.0000000000000000e+00
5.0000000000000003e-02  2.7777777777777779e-01  2.9999999999999999e-01
5.0000000000000003e-02  2.5000000000000000e-01  0.0000000000000000e+00
5.0000000000000003e-02  2.5000000000000000e-01  2.9999999999999999e-01
5.0000000000000003e-02  2.7777777777777779e-01  1.4999999999999999e-01
5.0000000000000003e-02  2.5000000000000000e-01  1.4999999999999999e-01
-5.0000000000000003e-02  3.3333333333333331e-01  0.0000000000000000e+00
-5.0000000000000003e-02  3.3333333333333331e-01  2.9999999999999999e-01
-5.0000000000000003e-02  3.0555555555555558e-01  0.0000000000000000e+00
-5.0000000000000003e-02  3.0555555555555558e-01  2.9999999999999999e-01
-5.0000000000000003e-02  3.3333333333333331e-01  1.4999999999999999e-01
-5.0000000000000003e-02  3.0555555555555558e-01  1.4999999999999999e-01
5.0000000000000003e-02  3.3333333333333331e-01  0.0000000000000000e+00
5.0000000000000003e-02  3.3333333333333331e-01  2.9999999999999999e-01
5.0000000000000003e-02  3.0555555555555558e-01  0.0000000000000000e+00
5.0000000000000003e-02  3.0555555555555558e-01  2.9999999999999999e-01
5.0000000000000003e-02  3.3333333333333331e-01  1.4999999999999999e-01
5.0000000000000003e-02  3.0555555555555558e-01  1.4999999999999999e-01
-5.0000000000000003e-02  3.8888888888888884e-01  0.0000000000000000e+00
-5.0000000000000003e-02  3.8888888888888884e-01  2.9999999999999999e-01
-5.0000000000000003e-02  3.6111111111111105e-01  0.0000000000000000e+00
-5.0000000000000003e-02  3.6111111111111105e-01  2.9999999999999999e-01
-5.0000000000000003e-02  3.8888888888888884e-01  1.4999999999999999e-01
-5.0000000000000003e-02  3.6111111111111105e-01  1.4999999999999999e-01
5.0000000000000003e-02  3.8888888888888884e-01  0.0000000000000000e+00
5.0000000000000003e-02  3.8888888888888884e-01  2.9999999999999999e-01
5.0000000000000003e-02  3.6111111111111105e-01  0.0000000000000000e+00
5.0000000000000003e-02  3.6111111111111105e-01  2.9999999999999999e-01
5.0000000000000003e-02  3.8888888888888884e-01  1.4999999999999999e-01
5.0000000000000003e-02  3.6111111111111105e-01  1.4999999999999999e-01
-5.0000000000000003e-02  4.4444444444444442e-01  0.0000000000000000e+00
-5.0000000000000003e-02  4.4444444444444442e-01  2.9999999999999999e-01
-5.0000000000000003e-02  4.1666666666666663e-01  0.0000000000000000e+00
-5.0000000000000003e-02  4.1666666666666663e-01  2.9999999999999999e-01
-5.0000000000000003e-02  4.4444444444444442e-01  1.4999999999999999e-01
-5.0000000000000003e-02  4.1666666666666663e-01  1.4999999999999999e-01
5.0000000000000003e-02  4.4444444444444442e-01  0.0000000000000000e+00
5.0000000000000003e-02  4.4444444444444442e-01  2.9999999999999999e-01
5.0000000000000003e-02  4.1666666666666663e-01  0.0000000000000000e+00
5.0000000000000003e-02  4.1666666666666663e-01  2.9999999999999999e-01
5.0000000000000003e-02  4.4444444444444442e-01  1.4999999999999999e-01
5.0000000000000003e-02  4.1666666666666663e-01  1.4999999999999999e-01
-5.0000000000000003e-02  5.0000000000000000e-01  0.0000000000000000e+00
-5.0000000000000003e-02  5.0000000000000000e-01  2.9999999999999999e-01
-5.0000000000000003e-02  4.7222222222222221e-01  0.0000000000000000e+00
-5.0000000000000003e-02  4.7222222222222221e-01  2.9999999999999999e-01
-5.0000000000000003e-02  5.0000000000000000e-01  1.4999999999999999e-01
-5.0000000000000003e-02  4.7222222222222221e-01  1.4999999999999999e-01
5.0000000000000003e-02  5.0000000000000000e-01  0.0000000000000000e+00
5.0000000000000003e-02  5.0000000000000000e-01  2.9999999999999999e-01
5.0000000000000003e-02  4.7222222222222221e-01  0.0000000000000000e+00
5.0000000000000003e-02  4.7222222222222221e-01  2.9999999999999999e-01
5.0000000000000003e-02  5.0000000000000000e-01  1.4999999999999999e-01
5.0000000000000003e-02  4.7222222222222221e-01  1.4999999999999999e-01
-5.0000000000000003e-02  5.5555555555555558e-01  0.0000000000000000e+00
-5.0000000000000003e-02  5.5555555555555558e-01  2.9999999999999999e-01
-5.0000000000000003e-02  5.2777777777777779e-01  0.0000000000000000e+00
-5.0000000000000003e-02  5.2777777777777779e-01  2.9999999999999999e-01
-5.0000000000000003e-02  5.5555555555555558e-01  1.4999999999999999e-01
-5.0000000000000003e-02  5.2777777777777779e-01  1.4999999999999999e-01
5.0000000000000003e-02  5.5555555555555558e-01  0.0000000000000000e+00
5.0000000000000003e-02  5.5555555555555558e-01  2.9999999999999999e-01
5.0000000000000003e-02  5.2777777777777779e-01  0.0000000000000000e+00
5.0000000000000003e-02  5.2777777777777779e-01  2.9999999999999999e-01
5.0000000000000003e-02  5.5555555555555558e-01  1.4999999999999999e-01
5.0000000000000003e-02  5.2777777777777779e-01  1.4999999999999999e-01
-5.0000000000000003e-02  6.1111111111111105e-01  0.0000000000000000e+00
-5.0000000000000003e-02  6.1111111111111105e-01  2.9999999999999999e-01
-5.0000000000000003e-02  5.8333333333333326e-01  0.0000000000000000e+00
-5.0000000000000003e-02  5.8333333333333326e-01  2.9999999999999999e-01
-5.0000000000000003e-02  6.1111111111111105e-01  1.4999999999999999e-01
-5.0000000000000003e-02  5.8333333333333326e-01  1.4999999999999999e-01
5.0000000000000003e-02  6.1111111111111105e-01  0.0000000000000000e+00
5.0000000000000003e-02  6.1111111111111105e-01  2.9999999999999999e-01
5.0000000000000003e-02  5.8333333333333326e-01  0.0000000000000000e+00
5.0000000000000003e-02  5.8333333333333326e-01  2.9999999999999999e-01
5.0000000000000003e-02  6.1111111111111105e-01  1.4999999999999999e-01
5.0000000000000003e-02  5.8333333333333326e-01  1.4999999999999999e-01
-5.0000000000000003e-02  6.6666666666666663e-01  0.0000000000000000e+00
-5.0000000000000003e-02  6.6666666666666663e-01  2.9999999999999999e-01
-5.0000000000000003e-02  6.3888888888888884e-01  0.0000000000000000e+00
-5.0000000000000003e-02  6.3888888888888884e-01  2.9999999999999999e-01
-5.0000000000000003e-02  6.6666666666666663e-01  1.4999999999999999e-01
-5.0000000000000003e-02  6.3888888888888884e-01  1.4999999999999999e-01
5.0000000000000003e-02  6.6666666666666663e-01  0.0000000000000000e+00
5.0000000000000003e-02  6.6666666666666663e-01  2.9999999999999999e-01
5.0000000000000003e-02  6.3888888888888884e-01  0.0000000000000000e+00
5.0000000000000003e-02  6.3888888888888884e-01  2.9999999999999999e-01
5.0000000000000003e-02  6.6666666666666663e-01  1.4999999999999999e-01
5.0000000000000003e-02  6.3888888888888884e-01  1.4999999999999999e-01
-5.0000000000000003e-02  7.2222222222222221e-01  0.0000000000000000e+00
-5.0000000000000003e-02  7.2222222222222221e-01  2.9999999999999999e-01
-5.0000000000000003e-02  6.9444444444444442e-01  0.0000000000000000e+00
-5.0000000000000003e-02  6.9444444444444442e-01  2.9999999999999999e-01
-5.0000000000000003e-02  7.2222222222222221e-01  1.4999999999999999e-01
-5.0000000000000003e-02  6.9444444444444442e-01  1.4999999999999999e-01
5.0000000000000003e-02  7.2222222222222221e-01  0.0000000000000000e+00
5.0000000000000003e-02  7.2222222222222221e-01  2.9999999999999999e-01
5.0000000000000003e-02  6.9444444444444442e-01  0.0000000000000000e+00
5.0000000000000003e-02  6.9444444444444442e-01  2.9999999999999999e-01
5.0000000000000003e-02  7.2222222222222221e-01  1.4999999999999999e-01
5.0000000000000003e-02  6.9444444444444442e-01  1.4999999999999999e-01
-5.0000000000000003e-02  7.7777777777777768e-01  0.0000000000000000e+00
-5.0000000000000003e-02  7.7777777777777768e-01  2.9999999999999999e-01
-5.0000000000000003e-02  7.5000000000000000e-01  0.0000000000000000e+00
-5.0000000000000003e-02  7.5000000000000000e-01  2.9999999999999999e-01
-5.0000000000000003e-02  7.7777777777777768e-01  1.4999999999999999e-01
-5.0000000000000003e-02  7.5000000000000000e-01  1.4999999999999999e-01
5.0000000000000003e-02  7.7777777777777768e-01  0.0000000000000000e+00
5.0000000000000003e-02  7.7777777777777768e-01  2.9999999999999999e-01
5.0000000000000003e-02  7.5000000000000000e-01  0.0000000000000000e+00
5.0000000000000003e-02  7.5000000000000000e-01  2.9999999999999999e-01
5.0000000000000003e-02  7.7777777777777768e-01  1.4999999999999999e-01
5.0000000000000003e-02  7.5000000000000000e-01  1.4999999999999999e-01
-5.0000000000000003e-02  8.3333333333333326e-01  0.0000000000000000e+00
-5.0000000000000003e-02  8.3333333333333326e-01  2.9999999999999999e-01
-5.0000000000000003e-02  8.0555555555555547e-01  0.0000000000000000e+00
-5.0000000000000003e-02  8.0555555555555547e-01  2.9999999999999999e-01
-5.0000000000000003e-02  8.3333333333333326e-01  1.4999999999999999e-01
-5.0000000000000003e-02  8.0555555555555536e-01  1.4999999999999999e-01
5.0000000000000003e-02  8.3333333333333326e-01  0.0000000000000000e+00
5.0000000000000003e-02  8.3333333333333326e-01  2.9999999999999999e-01
5.0000000000000003e-02  8.0555555555555547e-01  0.0000000000000000e+00
5.0000000000000003e-02  8.0555555555555547e-01  2.9999999999999999e-01
5.0000000000000003e-02  8.3333333333333326e-01  1.4999999999999999e-01
5.0000000000000003e-02  8.0555555555555536e-01  1.4999999999999999e-01
-5.0000000000000003e-02  8.8888888888888884e-01  0.0000000000000000e+00
-5.0000000000000003e-02  8.8888888888888884e-01  2.9999999999999999e-01
-5.0000000000000003e-02  8.6111111111111105e-01  0.0000000000000000e+00
-5.0000000000000003e-02  8.6111111111111105e-01  2.9999999999999999e-01
-5.0000000000000003e-02  8.8888888888888884e-01  1.4999999999999999e-01
-5.0000000000000003e-02  8.6111111111111105e-01  1.4999999999999999e-01
5.0000000000000003e-02  8.8888888888888884e-01  0.0000000000000000e+00
5.0000000000000003e-02  8.8888888888888884e-01  2.9999999999999999e-01
5.0000000000000003e-02  8.6111111111111105e-01  0.0000000000000000e+00
5.0000000000000003e-02  8.6111111111111105e-01  2.9999999999999999e-01
5.0000000000000003e-02  8.8888888888888884e-01  1.4999999999999999e-01
5.0000000000000003e-02  8.6111111111111105e-01  1.4999999999999999e-01
-5.0000000000000003e-02  9.4444444444444442e-01  0.0000000000000000e+00
-5.0000000000000003e-02  9.4444444444444442e-01  2.9999999999999999e-01
-5.0000000000000003e-02  9.1666666666666663e-01  0.0000000000000000e+00
-5.0000000000000003e-02  9.1666666666666663e-01  2.9999999999999999e-01
-5.0000000000000003e-02  9.4444444444444442e-01  1.4999999999999999e-01
-5.0000000000000003e-02  9.1666666666666674e-01  1.4999999999999999e-01
5.0000000000000003e-02  9.4444444444444442e-01  0.0000000000000000e+00
5.0000000000000003e-02  9.4444444444444442e-01  2.9999999999999999e-01
5.0000000000000003e-02  9.1666666666666663e-01  0.0000000000000000e+00
5.0000000000000003e-02  9.1666666666666663e-01  2.9999999999999999e-01
5.0000000000000003e-02  9.4444444444444442e-01  1.4999999999999999e-01
5.0000000000000003e-02  9.1666666666666674e-01  1.4999999999999999e-01
-5.0000000000000003e-02  1.0000000000000000e+00  0.0000000000000000e+00
-1.6666666666666670e-02  1.0000000000000000e+00  0.0000000000000000e+00
-5.0000000000000003e-02  1.0000000000000000e+00  2.9999999999999999e-01
-1.6666666666666670e-02  1.0000000000000000e+00  2.9999999999999999e-01
-5.0000000000000003e-02  9.7222222222222221e-01  0.0000000000000000e+00
-3.3333333333333340e-02  1.0000000000000000e+00  0.0000000000000000e+00
-5.0000000000000003e-02  9.7222222222222221e-01  2.9999999999999999e-01
-3.3333333333333340e-02  1.0000000000000000e+00  2.9999999999999999e-01
-5.0000000000000003e-02  1.0000000000000000e+00  1.4999999999999999e-01
-1.6666666666666670e-02  1.0000000000000000e+00  1.4999999999999999e-01
-5.0000000000000003e-02  9.7222222222222221e-01  1.4999999999999999e-01
-3.3333333333333340e-02  1.0000000000000000e+00  1.4999999999999999e-01
1.6666666666666663e-02  1.0000000000000000e+00  0.0000000000000000e+00
1.6666666666666663e-02  1.0000000000000000e+00  2.9999999999999999e-01
-3.4694469519536142e-18  1.0000000000000000e+00  0.0000000000000000e+00
-3.4694469519536142e-18  1.0000000000000000e+00  2.9999999999999999e-01
1.6666666666666663e-02  1.0000000000000000e+00  1.4999999999999999e-01
-3.4694469519536142e-18  1.0000000000000000e+00  1.4999999999999999e-01
5.0000000000000003e-02  1.0000000000000000e+00  0.0000000000000000e+00
5.0000000000000003e-02  1.0000000000000000e+00  2.9999999999999999e-01
5.0000000000000003e-02  9.7222222222222221e-01  0.0000000000000000e+00
3.3333333333333333e-02  1.0000000000000000e+00  0.0000000000000000e+00
5.0000000000000003e-02  9.7222222222222221e-01  2.9999999999999999e-01
3.3333333333333333e-02  1.0000000000000000e+00  2.9999999999999999e-01
5.0000000000000003e-02  1.0000000000000000e+00  1.4999999999999999e-01
5.0000000000000003e-02  9.7222222222222221e-01  1.4999999999999999e-01
3.3333333333333333e-02  1.0000000000000000e+00  1.4999999999999999e-01

CELLS 0 0


CELL_TYPES 0


POINT_DATA 237

VECTORS VertexNormals float

0.0000000000000000e+00 0.0000000000000000e+00 0.0000000000000000e+00 
0.0000000000000000e+00 0.0000000000000000e+00 0.0000000000000000e+00 
0.0000000000000000e+00 0.0000000000000000e+00 0.0000000000000000e+00 
0.0000000000000000e+00 0.0000000000000000e+00 0.0000000000000000e+00 
0.0000000000000000e+00 0.0000000000000000e+00 0.0000000000000000e+00 
0.0000000000000000e+00 0.0000000000000000e+00 0.0000000000000000e+00 
0.0000000000000000e+00 0.0000000000000000e+00 0.0000000000000000e+00 
0.0000000000000000e+00 0.0000000000000000e+00 0.0000000000000000e+00 
0.0000000000000000e+00 0.0000000000000000e+00 0.0000000000000000e+00 
0.0000000000000000e+00 0.0000000000000000e+00 0.0000000000000000e+00 
0.0000000000000000e+00 0.0000000000000000e+00 0.0000000000000000e+00 
0.0000000000000000e+00 0.0000000000000000e+00 0.0000000000000000e+00 
0.0000000000000000e+00 0.0000000000000000e+00 0.0000000000000000e+00 
0.0000000000000000e+00 0.0000000000000000e+00 0.0000000000000000e+00 
0.0000000000000000e+00 0.0000000000000000e+00 0.0000000000000000e+00 
0.0000000000000000e+00 0.0000000000000000e+00 0.0000000000000000e+00 
0.0000000000000000e+00 0.0000000000000000e+00 0.0000000000000000e+00 
0.0000000000000000e+00 0.0000000000000000e+00 0.0000000000000000e+00 
0.0000000000000000e+00 0.0000000000000000e+00 0.0000000000000000e+00 
0.0000000000000000e+00 0.0000000000000000e+00 0.0000000000000000e+00 
0.0000000000000000e+00 0.0000000000000000e+00 0.0000000000000000e+00 
0.0000000000000000e+00 0.0000000000000000e+00 0.0000000000000000e+00 
0.0000000000000000e+00 0.0000000000000000e+00 0.0000000000000000e+00 
0.0000000000000000e+00 0.0000000000000000e+00 0.0000000000000000e+00 
0.0000000000000000e+00 0.0000000000000000e+00 0.0000000000000000e+00 
0.0000000000000000e+00 0.0000000000000000e+00 0.0000000000000000e+00 
0.0000000000000000e+00 0.0000000000000000e+00 0.0000000000000000e+00 
0.0000000000000000e+00 0.0000000000000000e+00 0.0000000000000000e+00 
0.0000000000000000e+00 0.0000000000000000e+00 0.0000000000000000e+00 
0.0000000000000000e+00 0.0000000000000000e+00 0.0000000000000000e+00 
0.0000000000000000e+00 0.0000000000000000e+00 0.0000000000000000e+00 
0.0000000000000000e+00 0.0000000000000000e+00 0.0000000000000000e+00 
0.0000000000000000e+00 0.0000000000000000e+00 0.0000000000000000e+00 
0.0000000000000000e+00 0.0000000000000000e+00 0.0000000000000000e+00 
0.0000000000000000e+00 0.0000000000000000e+00 0.0000000000000000e+00 
0.0000000000000000e+00 0.0000000000000000e+00 0.0000000000000000e+00 
0.0000000000000000e+00 0.0000000000000000e+00 0.0000000000000000e+00 
0.0000000000000000e+00 0.0000000000000000e+00 0.0000000000000000e+00 
0.0000000000000000e+00 0.0000000000000000e+00 0.0000000000000000e+00 
0.0000000000000000e+00 0.0000000000000000e+00 0.0000000000000000e+00 
0.0000000000000000e+00 0.0000000000000000e+00 0.0000000000000000e+00 
0.0000000000000000e+00 0.0000000000000000e+00 0.0000000000000000e+00 
0.0000000000000000e+00 0.0000000000000000e+00 0.0000000000000000e+00 
0.0000000000000000e+00 0.0000000000000000e+00 0.0000000000000000e+00 
0.0000000000000000e+00 0.0000000000000000e+00 0.0000000000000000e+00 
0.0000000000000000e+00 0.0000000000000000e+00 0.0000000000000000e+00 
0.0000000000000000e+00 0.0000000000000000e+00 0.0000000000000000e+00 
0.0000000000000000e+00 0.0000000000000000e+00 0.0000000000000000e+00 
0.0000000000000000e+00 0.0000000000000000e+00 0.0000000000000000e+00 
0.0000000000000000e+00 0.0000000000000000e+00 0.0000000000000000e+00 
0.0000000000000000e+00 0.0000000000000000e+00 0.0000000000000000e+00 
0.0000000000000000e+00 0.0000000000000000e+00 0.0000000000000000e+00 
0.0000000000000000e+00 0.0000000000000000e+00 0.0000000000000000e+00 
0.0000000000000000e+00 0.0000000000000000e+00 0.0000000000000000e+00 
0.0000000000000000e+00 0.0000000000000000e+00 0.0000000000000000e+00 
0.0000000000000000e+00 0.0000000000000000e+00 0.0000000000000000e+00 
0.0000000000000000e+00 0.0000000000000000e+00 0.0000000000000000e+00 
0.0000000000000000e+00 0.0000000000000000e+00 0.0000000000000000e+00 
0.0000000000000000e+00 0.0000000000000000e+00 0.0000000000000000e+00 
0.0000000000000000e+00 0.0000000000000000e+00 0.0000000000000000e+00 
0.0000000000000000e+00 0.0000000000000000e+00 0.0000000000000000e+00 
0.0000000000000000e+00 0.0000000000000000e+00 0.0000000000000000e+00 
0.0000000000000000e+00 0.0000000000000000e+00 0.0000000000000000e+00 
0.0000000000000000e+00 0.0000000000000000e+00 0.0000000000000000e+00 
0.0000000000000000e+00 0.0000000000000000e+00 0.0000000000000000e+00 
0.0000000000000000e+00 0.0000000000000000e+00 0.0000000000000000e+00 
0.0000000000000000e+00 0.0000000000000000e+00 0.0000000000000000e+00 
0.0000000000000000e+00 0.0000000000000000e+00 0.0000000000000000e+00 
0.0000000000000000e+00 0.0000000000000000e+00 0.0000000000000000e+00 
0.0000000000000000e+00 0.0000000000000000e+00 0.0000000000000000e+00 
0.0000000000000000e+00 0.0000000000000000e+00 0.0000000000000000e+00 
0.0000000000000000e+00 0.0000000000000000e+00 0.0000000000000000e+00 
0.0000000000000000e+00 0.0000000000000000e+00 0.0000000000000000e+00 
0.0000000000000000e+00 0.0000000000000000e+00 0.0000000000000000e+00 
0.0000000000000000e+00 0.0000000000000000e+00 0.0000000000000000e+00 
0.0000000000000000e+00 0.0000000000000000e+00 0.0000000000000000e+00 
0.0000000000000000e+00 0.0000000000000000e+00 0.0000000000000000e+00 
0.0000000000000000e+00 0.0000000000000000e+00 0.0000000000000000e+00 
0.0000000000000000e+00 0.0000000000000000e+00 0.0000000000000000e+00 
0.0000000000000000e+00 0.0000000000000000e+00 0.0000000000000000e+00 
0.0000000000000000e+00 0.0000000000000000e+00 0.0000000000000000e+00 
0.0000000000000000e+00 0.0000000000000000e+00 0.0000000000000000e+00 
0.0000000000000000e+00 0.0000000000000000e+00 0.0000000000000000e+00 
0.0000000000000000e+00 0.0000000000000000e+00 0.0000000000000000e+00 
0.0000000000000000e+00 0.0000000000000000e+00 0.0000000000000000e+00 
0.0000000000000000e+00 0.0000000000000000e+00 0.0000000000000000e+00 
0.0000000000000000e+00 0.0000000000000000e+00 0.0000000000000000e+00 
0.0000000000000000e+00 0.0000000000000000e+00 0.0000000000000000e+00 
0.0000000000000000e+00 0.0000000000000000e+00 0.0000000000000000e+00 
0.0000000000000000e+00 0.0000000000000000e+00 0.0000000000000000e+00 
0.0000000000000000e+00 0.0000000000000000e+00 0.0000000000000000e+00 
0.0000000000000000e+00 0.0000000000000000e+00 0.0000000000000000e+00 
0.0000000000000000e+00 0.0000000000000000e+00 0.0000000000000000e+00 
0.0000000000000000e+00 0.0000000000000000e+00 0.0000000000000000e+00 
0.0000000000000000e+00 0.0000000000000000e+00 0.0000000000000000e+00 
0.0000000000000000e+00 0.0000000000000000e+00 0.0000000000000000e+00 
0.0000000000000000e+00 0.0000000000000000e+00 0.0000000000000000e+00 
0.0000000000000000e+00 0.0000000000000000e+00 0.0000000000000000e+00 
0.0000000000000000e+00 0.0000000000000000e+00 0.0000000000000000e+00 
0.0000000000000000e+00 0.0000000000000000e+00 0.0000000000000000e+00 
0.0000000000000000e+00 0.0000000000000000e+00 0.0000000000000000e+00 
0.0000000000000000e+00 0.0000000000000000e+00 0.0000000000000000e+00 
0.0000000000000000e+00 0.0000000000000000e+00 0.0000000000000000e+00 
0.0000000000000000e+00 0.0000000000000000e+00 0.0000000000000000e+00 
0.0000000000000000e+00 0.0000000000000000e+00 0.0000000000000000e+00 
0.0000000000000000e+00 0.0000000000000000e+00 0.0000000000000000e+00 
0.0000000000000000e+00 0.0000000000000000e+00 0.0000000000000000e+00 
0.0000000000000000e+00 0.0000000000000000e+00 0.0000000000000000e+00 
0.0000000000000000e+00 0.0000000000000000e+00 0.0000000000000000e+00 
0.0000000000000000e+00 0.0000000000000000e+00 0.0000000000000000e+00 
0.0000000000000000e+00 0.0000000000000000e+00 0.0000000000000000e+00 
0.0000000000000000e+00 0.0000000000000000e+00 0.0000000000000000e+00 
0.0000000000000000e+00 0.0000000000000000e+00 0.0000000000000000e+00 
0.0000000000000000e+00 0.0000000000000000e+00 0.0000000000000000e+00 
0.0000000000000000e+00 0.0000000000000000e+00 0.0000000000000000e+00 
0.0000000000000000e+00 0.0000000000000000e+00 0.0000000000000000e+00 
0.0000000000000000e+00 0.0000000000000000e+00 0.0000000000000000e+00 
0.0000000000000000e+00 0.0000000000000000e+00 0.0000000000000000e+00 
0.0000000000000000e+00 0.0000000000000000e+00 0.0000000000000000e+00 
0.0000000000000000e+00 0.0000000000000000e+00 0.0000000000000000e+00 
0.0000000000000000e+00 0.0000000000000000e+00 0.0000000000000000e+00 
0.0000000000000000e+00 0.0000000000000000e+00 0.0000000000000000e+00 
0.0000000000000000e+00 0.0000000000000000e+00 0.0000000000000000e+00 
0.0000000000000000e+00 0.0000000000000000e+00 0.0000000000000000e+00 
0.0000000000000000e+00 0.0000000000000000e+00 0.0000000000000000e+00 
0.0000000000000000e+00 0.0000000000000000e+00 0.0000000000000000e+00 
0.0000000000000000e+00 0.0000000000000000e+00 0.0000000000000000e+00 
0.0000000000000000e+00 0.0000000000000000e+00 0.0000000000000000e+00 
0.0000000000000000e+00 0.0000000000000000e+00 0.0000000000000000e+00 
0.0000000000000000e+00 0.0000000000000000e+00 0.0000000000000000e+00 
0.0000000000000000e+00 0.0000000000000000e+00 0.0000000000000000e+00 
0.0000000000000000e+00 0.0000000000000000e+00 0.0000000000000000e+00 
0.0000000000000000e+00 0.0000000000000000e+00 0.0000000000000000e+00 
0.0000000000000000e+00 0.0000000000000000e+00 0.0000000000000000e+00 
0.0000000000000000e+00 0.0000000000000000e+00 0.0000000000000000e+00 
0.0000000000000000e+00 0.0000000000000000e+00 0.0000000000000000e+00 
0.0000000000000000e+00 0.0000000000000000e+00 0.0000000000000000e+00 
0.0000000000000000e+00 0.0000000000000000e+00 0.0000000000000000e+00 
0.0000000000000000e+00 0.0000000000000000e+00 0.0000000000000000e+00 
0.0000000000000000e+00 0.0000000000000000e+00 0.0000000000000000e+00 
0.0000000000000000e+00 0.0000000000000000e+00 0.0000000000000000e+00 
0.0000000000000000e+00 0.0000000000000000e+00 0.0000000000000000e+00 
0.0000000000000000e+00 0.0000000000000000e+00 0.0000000000000000e+00 
0.0000000000000000e+00 0.0000000000000000e+00 0.0000000000000000e+00 
0.0000000000000000e+00 0.0000000000000000e+00 0.0000000000000000e+00 
0.0000000000000000e+00 0.0000000000000000e+00 0.0000000000000000e+00 
0.0000000000000000e+00 0.0000000000000000e+00 0.0000000000000000e+00 
0.0000000000000000e+00 0.0000000000000000e+00 0.0000000000000000e+00 
0.0000000000000000e+00 0.0000000000000000e+00 0.0000000000000000e+00 
0.0000000000000000e+00 0.0000000000000000e+00 0.0000000000000000e+00 
0.0000000000000000e+00 0.0000000000000000e+00 0.0000000000000000e+00 
0.0000000000000000e+00 0.0000000000000000e+00 0.0000000000000000e+00 
0.0000000000000000e+00 0.0000000000000000e+00 0.0000000000000000e+00 
0.0000000000000000e+00 0.0000000000000000e+00 0.0000000000000000e+00 
0.0000000000000000e+00 0.0000000000000000e+00 0.0000000000000000e+00 
0.0000000000000000e+00 0.0000000000000000e+00 0.0000000000000000e+00 
0.0000000000000000e+00 0.0000000000000000e+00 0.0000000000000000e+00 
0.0000000000000000e+00 0.0000000000000000e+00 0.0000000000000000e+00 
0.0000000000000000e+00 0.0000000000000000e+00 0.0000000000000000e+00 
0.0000000000000000e+00 0.0000000000000000e+00 0.0000000000000000e+00 
0.0000000000000000e+00 0.0000000000000000e+00 0.0000000000000000e+00 
0.0000000000000000e+00 0.0000000000000000e+00 0.0000000000000000e+00 
0.0000000000000000e+00 0.0000000000000000e+00 0.0000000000000000e+00 
0.0000000000000000e+00 0.0000000000000000e+00 0.0000000000000000e+00 
0.0000000000000000e+00 0.0000000000000000e+00 0.0000000000000000e+00 
0.0000000000000000e+00 0.0000000000000000e+00 0.0000000000000000e+00 
0.0000000000000000e+00 0.0000000000000000e+00 0.0000000000000000e+00 
0.0000000000000000e+00 0.0000000000000000e+00 0.0000000000000000e+00 
0.0000000000000000e+00 0.0000000000000000e+00 0.0000000000000000e+00 
0.0000000000000000e+00 0.0000000000000000e+00 0.0000000000000000e+00 
0.0000000000000000e+00 0.0000000000000000e+00 0.0000000000000000e+00 
0.0000000000000000e+00 0.0000000000000000e+00 0.0000000000000000e+00 
0.0000000000000000e+00 0.0000000000000000e+00 0.0000000000000000e+00 
0.0000000000000000e+00 0.0000000000000000e+00 0.0000000000000000e+00 
0.0000000000000000e+00 0.0000000000000000e+00 0.0000000000000000e+00 
0.0000000000000000e+00 0.0000000000000000e+00 0.0000000000000000e+00 
0.0000000000000000e+00 0.0000000000000000e+00 0.0000000000000000e+00 
0.0000000000000000e+00 0.0000000000000000e+00 0.0000000000000000e+00 
0.0000000000000000e+00 0.0000000000000000e+00 0.0000000000000000e+00 
0.0000000000000000e+00 0.0000000000000000e+00 0.0000000000000000e+00 
0.0000000000000000e+00 0.0000000000000000e+00 0.0000000000000000e+00 
0.0000000000000000e+00 0.0000000000000000e+00 0.0000000000000000e+00 
0.0000000000000000e+00 0.0000000000000000e+00 0.0000000000000000e+00 
0.0000000000000000e+00 0.0000000000000000e+00 0.0000000000000000e+00 
0.0000000000000000e+00 0.0000000000000000e+00 0.0000000000000000e+00 
0.0000000000000000e+00 0.0000000000000000e+00 0.0000000000000000e+00 
0.0000000000000000e+00 0.0000000000000000e+00 0.0000000000000000e+00 
0.0000000000000000e+00 0.0000000000000000e+00 0.0000000000000000e+00 
0.0000000000000000e+00 0.0000000000000000e+00 0.0000000000000000e+00 
0.0000000000000000e+00 0.0000000000000000e+00 0.0000000000000000e+00 
0.0000000000000000e+00 0.0000000000000000e+00 0.0000000000000000e+00 
0.0000000000000000e+00 0.0000000000000000e+00 0.0000000000000000e+00 
0.0000000000000000e+00 0.0000000000000000e+00 0.0000000000000000e+00 
0.0000000000000000e+00 0.0000000000000000e+00 0.0000000000000000e+00 
0.0000000000000000e+00 0.0000000000000000e+00 0.0000000000000000e+00 
0.0000000000000000e+00 0.0000000000000000e+00 0.0000000000000000e+00 
0.0000000000000000e+00 0.0000000000000000e+00 0.0000000000000000e+00 
0.0000000000000000e+00 0.0000000000000000e+00 0.0000000000000000e+00 
0.0000000000000000e+00 0.0000000000000000e+00 0.0000000000000000e+00 
0.0000000000000000e+00 0.0000000000000000e+00 0.0000000000000000e+00 
0.0000000000000000e+00 0.0000000000000000e+00 0.0000000000000000e+00 
0.0000000000000000e+00 0.0000000000000000e+00 0.0000000000000000e+00 
0.0000000000000000e+00 0.0000000000000000e+00 0.0000000000000000e+00 
0.0000000000000000e+00 0.0000000000000000e+00 0.0000000000000000e+00 
0.0000000000000000e+00 0.0000000000000000e+00 0.0000000000000000e+00 
0.0000000000000000e+00 0.0000000000000000e+00 0.0000000000000000e+00 
0.0000000000000000e+00 0.0000000000000000e+00 0.0000000000000000e+00 
0.0000000000000000e+00 0.0000000000000000e+00 0.0000000000000000e+00 
0.0000000000000000e+00 0.0000000000000000e+00 0.0000000000000000e+00 
0.0000000000000000e+00 0.0000000000000000e+00 0.0000000000000000e+00 
0.0000000000000000e+00 0.0000000000000000e+00 0.0000000000000000e+00 
0.0000000000000000e+00 0.0000000000000000e+00 0.0000000000000000e+00 
0.0000000000000000e+00 0.0000000000000000e+00 0.0000000000000000e+00 
0.0000000000000000e+00 0.0000000000000000e+00 0.0000000000000000e+00 
0.0000000000000000e+00 0.0000000000000000e+00 0.0000000000000000e+00 
0.0000000000000000e+00 0.0000000000000000e+00 0.0000000000000000e+00 
0.0000000000000000e+00 0.0000000000000000e+00 0.0000000000000000e+00 
0.0000000000000000e+00 0.0000000000000000e+00 0.0000000000000000e+00 
0.0000000000000000e+00 0.0000000000000000e+00 0.0000000000000000e+00 
0.0000000000000000e+00 0.0000000000000000e+00 0.0000000000000000e+00 
0.0000000000000000e+00 0.0000000000000000e+00 0.0000000000000000e+00 
0.0000000000000000e+00 0.0000000000000000e+00 0.0000000000000000e+00 
0.0000000000000000e+00 0.0000000000000000e+00 0.0000000000000000e+00 
0.0000000000000000e+00 0.0000000000000000e+00 0.0000000000000000e+00 
0.0000000000000000e+00 0.0000000000000000e+00 0.0000000000000000e+00 
0.0000000000000000e+00 0.0000000000000000e+00 0.0000000000000000e+00 
0.0000000000000000e+00 0.0000000000000000e+00 0.0000000000000000e+00 
0.0000000000000000e+00 0.0000000000000000e+00 0.0000000000000000e+00 
0.0000000000000000e+00 0.0000000000000000e+00 0.0000000000000000e+00 
0.0000000000000000e+00 0.0000000000000000e+00 0.0000000000000000e+00 
0.0000000000000000e+00 0.0000000000000000e+00 0.0000000000000000e+00 
0.0000000000000000e+00 0.0000000000000000e+00 0.0000000000000000e+00 
0.0000000000000000e+00 0.0000000000000000e+00 0.0000000000000000e+00 
0.0000000000000000e+00 0.0000000000000000e+00 0.0000000000000000e+00 
0.0000000000000000e+00 0.0000000000000000e+00 0.0000000000000000e+00 
0.0000000000000000e+00 0.0000000000000000e+00 0.0000000000000000e+00 
0.0000000000000000e+00 0.0000000000000000e+00 0.0000000000000000e+00 

VECTORS Displacement float
0.0000000000000000e+00 0.0000000000000000e+00 0.0000000000000000e+00 
1.1731633117384520e-03 1.9931887420554361e-03 0.0000000000000000e+00 
0.0000000000000000e+00 0.0000000000000000e+00 0.0000000000000000e+00 
1.1731577105677409e-03 1.9931912134480796e-03 0.0000000000000000e+00 
4.6340695143437413e-04 9.7322594129017632e-04 0.0000000000000000e+00 
4.6338954135351527e-04 9.7322350870931149e-04 0.0000000000000000e+00 
0.0000000000000000e+00 0.0000000000000000e+00 0.0000000000000000e+00 
1.1731525254107603e-03 1.9932010580809376e-03 -2.1953410939010021e-09 
4.6339667644408947e-04 9.7323429009461696e-04 -2.7814928938449807e-09 
0.0000000000000000e+00 0.0000000000000000e+00 0.0000000000000000e+00 
1.2017709314040119e-03 -2.0993370330423733e-03 0.0000000000000000e+00 
0.0000000000000000e+00 0.0000000000000000e+00 0.0000000000000000e+00 
1.2017573242617940e-03 -2.0993231382279189e-03 0.0000000000000000e+00 
4.4429470353735150e-04 -1.0078810770021555e-03 0.0000000000000000e+00 
4.4429374738653060e-04 -1.0078755986574046e-03 0.0000000000000000e+00 
0.0000000000000000e+00 0.0000000000000000e+00 0.0000000000000000e+00 
1.2017660398339776e-03 -2.0993392259310785e-03 4.6659180718830422e-09 
4.4428706165715510e-04 -1.0078840440582090e-03 1.8632332000241431e-09 
4.6522048561610813e-03 4.2501183761645325e-03 0.0000000000000000e+00 
4.6522067648432121e-03 4.2501103321036767e-03 0.0000000000000000e+00 
2.5443381666148202e-03 3.1002101615132420e-03 0.0000000000000000e+00 
2.5443338683790919e-03 3.1002137678865843e-03 0.0000000000000000e+00 
4.6522019424501924e-03 4.2501230505897778e-03 -1.9024868774252439e-09 
2.5443306750451071e-03 3.1002224437742774e-03 -5.5399790604280156e-09 
4.6899633299925352e-03 -4.4497015352670619e-03 0.0000000000000000e+00 
4.6899599423387492e-03 -4.4496799291411111e-03 0.0000000000000000e+00 
2.6090962490911826e-03 -3.2603598311433503e-03 0.0000000000000000e+00 
2.6090894022648501e-03 -3.2603445304641510e-03 0.0000000000000000e+00 
4.6899532089056811e-03 -4.4497009533811596e-03 2.9556884401898713e-09 
2.6090923619712194e-03 -3.2603542130486577e-03 3.9244203657315617e-09 
1.0848671359299747e-02 6.5488240874325742e-03 0.0000000000000000e+00 
1.0848671385049184e-02 6.5488289623493925e-03 0.0000000000000000e+00 
7.4505300995007292e-03 5.4087525169324250e-03 0.0000000000000000e+00 
7.4505151606895359e-03 5.4087593930474635e-03 0.0000000000000000e+00 
1.0848676185300610e-02 6.5488193041700928e-03 4.0406619260916036e-09 
7.4505274922943825e-03 5.4087509838361813e-03 -1.8782021621176790e-10 
1.0886796166956557e-02 -6.7964923249605024e-03 0.0000000000000000e+00 
1.0886767913948443e-02 -6.7964799907080063e-03 0.0000000000000000e+00 
7.4578737750240218e-03 -5.6504630659012173e-03 0.0000000000000000e+00 
7.4578596981755675e-03 -5.6504507472007002e-03 0.0000000000000000e+00 
1.0886786863620639e-02 -6.7964942781674927e-03 5.6493332741292199e-10 
7.4578729768241415e-03 -5.6504596367646324e-03 -3.9889405161829398e-10 
1.9578290626804766e-02 8.6332444539379809e-03 0.0000000000000000e+00 
1.9578294084978246e-02 8.6332285545890966e-03 0.0000000000000000e+00 
1.4889743639191258e-02 7.6381680317679120e-03 0.0000000000000000e+00 
1.4889747140350858e-02 7.6381678422800577e-03 0.0000000000000000e+00 
1.9578287737465408e-02 8.6332273831600508e-03 3.2485029273027267e-09 
1.4889750450967151e-02 7.6381598944303400e-03 1.3008768924662911e-09 
1.9696263408188690e-02 -8.8501691133034185e-03 0.0000000000000000e+00 
1.9696258135075168e-02 -8.8501522706148795e-03 0.0000000000000000e+00 
1.5003240428082780e-02 -7.8556096300496751e-03 0.0000000000000000e+00 
1.5003244152020239e-02 -7.8556021012553476e-03 0.0000000000000000e+00 
1.9696259800718787e-02 -8.8501647984266865e-03 5.0650165641340464e-10 
1.5003254530020920e-02 -7.8556041526369087e-03 -1.1378739893423398e-09 
3.0494694694382631e-02 1.0244424388211175e-02 0.0000000000000000e+00 
3.0494698761117860e-02 1.0244421988973788e-02 0.0000000000000000e+00 
2.4800642362878756e-02 9.4946568164007671e-03 0.0000000000000000e+00 
2.4800636600241698e-02 9.4946493057998446e-03 0.0000000000000000e+00 
3.0494694438267963e-02 1.0244420357928432e-02 1.5052245535072492e-09 
2.4800631332683926e-02 9.4946537301125282e-03 -7.5446425178292030e-10 
3.0528434660532587e-02 -1.0658253779392744e-02 0.0000000000000000e+00 
3.0528423032251714e-02 -1.0658236794187698e-02 0.0000000000000000e+00 
2.4860100359924441e-02 -9.7871336013185869e-03 0.0000000000000000e+00 
2.4860102398570866e-02 -9.7871196272487342e-03 0.0000000000000000e+00 
3.0528427418855364e-02 -1.0658252200404053e-02 -1.3899145104263238e-09 
2.4860106147051145e-02 -9.7871350307889866e-03 -3.4339745713545779e-09 
4.2878781220750256e-02 1.1510551715943947e-02 0.0000000000000000e+00 
4.2878776787612642e-02 1.1510549611572697e-02 0.0000000000000000e+00 
3.6551132268245301e-02 1.0877075285817208e-02 0.0000000000000000e+00 
3.6551131734717093e-02 1.0877073078839800e-02 0.0000000000000000e+00 
4.2878780029456609e-02 1.1510545280988429e-02 8.6855259875552586e-10 
3.6551129124027582e-02 1.0877072137231079e-02 -1.0040162456873089e-09 
4.3033473847251896e-02 -1.2089403181892154e-02 0.0000000000000000e+00 
4.3033474442631670e-02 -1.2089394266473640e-02 0.0000000000000000e+00 
3.6624274821753754e-02 -1.1398115266988864e-02 0.0000000000000000e+00 
3.6624264675946663e-02 -1.1398107890583773e-02 0.0000000000000000e+00 
4.3033480979271760e-02 -1.2089406776410660e-02 -2.4707837670406030e-09 
3.6624277616968917e-02 -1.1398115807515007e-02 -2.8806357177197886e-09 
5.6824636517491020e-02 1.2895378699998780e-02 0.0000000000000000e+00 
5.6824644634001983e-02 1.2895380015109547e-02 0.0000000000000000e+00 
4.9641439242562188e-02 1.2200567594116155e-02 0.0000000000000000e+00 
4.9641442347952383e-02 1.2200578229105651e-02 0.0000000000000000e+00 
5.6824641482608004e-02 1.2895379475536279e-02 3.4094579749517010e-09 
4.9641431767290765e-02 1.2200566797270237e-02 -9.4022868031475802e-10 
5.6931599334533955e-02 -1.3452133179283617e-02 0.0000000000000000e+00 
5.6931598475997477e-02 -1.3452122513090546e-02 0.0000000000000000e+00 
4.9811322092247687e-02 -1.2775839998435748e-02 0.0000000000000000e+00 
4.9811330573890630e-02 -1.2775835409187527e-02 0.0000000000000000e+00 
5.6931603999838057e-02 -1.3452124810528333e-02 -9.5869083160422819e-10 
4.9811347856505553e-02 -1.2775837248944990e-02 -3.2631692093416904e-09 
7.2373905325936794e-02 1.4228249413470839e-02 0.0000000000000000e+00 
7.2373910859837215e-02 1.4228255923248464e-02 0.0000000000000000e+00 
6.4397036596141460e-02 1.3578889360922487e-02 0.0000000000000000e+00 
6.4397041954856377e-02 1.3578896323748483e-02 0.0000000000000000e+00 
7.2373901605467805e-02 1.4228244887846977e-02 6.9043251671286494e-09 
6.4397045911313955e-02 1.3578887937661242e-02 4.0751962972822053e-09 
7.2466401977913375e-02 -1.4800831749929418e-02 0.0000000000000000e+00 
7.2466397220053325e-02 -1.4800842406127938e-02 0.0000000000000000e+00 
6.4470771567836510e-02 -1.4141521931582001e-02 0.0000000000000000e+00 
6.4470765122212351e-02 -1.4141522458280528e-02 0.0000000000000000e+00 
7.2466395584552520e-02 -1.4800836087059866e-02 -1.3874122379853792e-09 
6.4470775885797971e-02 -1.4141516196523738e-02 -4.0256741396503463e-09 
8.9289773406910120e-02 1.5403175572651468e-02 0.0000000000000000e+00 
8.9289792851372826e-02 1.5403184710316507e-02 0.0000000000000000e+00 
8.0671759023355771e-02 1.4829591854329263e-02 0.0000000000000000e+00 
8.0671761663579727e-02 1.4829602407039819e-02 0.0000000000000000e+00 
8.9289785557187168e-02 1.5403179127144674e-02 5.2407234781779058e-09 
8.0671749743726068e-02 1.4829597698920463e-02 3.9557687164802418e-09 
8.9368392523390738e-02 -1.6036595767979975e-02 0.0000000000000000e+00 
8.9368394364207238e-02 -1.6036600154724134e-02 0.0000000000000000e+00 
8.0775076547196081e-02 -1.5415592369059192e-02 0.0000000000000000e+00 
8.0775084711983899e-02 -1.5415605041804996e-02 0.0000000000000000e+00 
8.9368399580266239e-02 -1.6036597785258896e-02 -8.9123854578476677e-10 
8.0775087612036223e-02 -1.5415600368771744e-02 -4.5077292337319376e-09 
1.0754737996430971e-01 1.6517648446400648e-02 0.0000000000000000e+00 
1.0754737955175570e-01 1.6517633019467171e-02 0.0000000000000000e+00 
9.8252411833933156e-02 1.5961526171095954e-02 0.0000000000000000e+00 
9.8252438996437888e-02 1.5961522986291891e-02 0.0000000000000000e+00 
1.0754737118674972e-01 1.6517633862783283e-02 2.5379521046729085e-09 
9.8252422518108590e-02 1.5961518446176721e-02 3.7533583708267028e-09 
1.0762730699962984e-01 -1.7272410094444055e-02 0.0000000000000000e+00 
1.0762729206743857e-01 -1.7272416356818490e-02 0.0000000000000000e+00 
9.8312786871260785e-02 -1.6669115649095977e-02 0.0000000000000000e+00 
9.8312788060956779e-02 -1.6669125971668697e-02 0.0000000000000000e+00 
1.0762729709154434e-01 -1.7272417078705558e-02 6.1504702047331901e-09 
9.8312791366907973e-02 -1.6669115635554489e-02 -1.3930567243117497e-10 
1.2701006701638040e-01 1.7560350003767176e-02 0.0000000000000000e+00 
1.2701006879631505e-01 1.7560338973586102e-02 0.0000000000000000e+00 
1.1714376534984980e-01 1.7057196453531345e-02 0.0000000000000000e+00 
1.1714375606820460e-01 1.7057193096233630e-02 0.0000000000000000e+00 
1.2701006166448309e-01 1.7560339728891858e-02 -1.7430348446207655e-09 
1.1714375643781666e-01 1.7057187959125659e-02 -2.2440806100454027e-09 
1.2712614600549829e-01 -1.8261782575078073e-02 0.0000000000000000e+00 
1.2712614522252527e-01 -1.8261780869368520e-02 0.0000000000000000e+00 
1.1725870700000716e-01 -1.7796366477199413e-02 0.0000000000000000e+00 
1.1725870723309803e-01 -1.7796374414955803e-02 0.0000000000000000e+00 
1.2712615547262027e-01 -1.8261786452417376e-02 4.6090556425148530e-09 
1.1725871638397439e-01 -1.7796375235696486e-02 2.9737763517129402e-09 
1.4747730737364390e-01 1.8481182402042946e-02 0.0000000000000000e+00 
1.4747729881073210e-01 1.8481161250757196e-02 0.0000000000000000e+00 
1.3711900448701875e-01 1.8027445382687211e-02 0.0000000000000000e+00 
1.3711900787233605e-01 1.8027428932542923e-02 0.0000000000000000e+00 
1.4747731183757959e-01 1.8481170546498150e-02 -6.1398242889994497e-10 
1.3711900180356196e-01 1.8027440015526128e-02 -3.6344525463217958e-09 
1.4758029817743978e-01 -1.9209245944811312e-02 0.0000000000000000e+00 
1.4758027731580386e-01 -1.9209239332679737e-02 0.0000000000000000e+00 
1.3721863059995554e-01 -1.8725806303136638e-02 0.0000000000000000e+00 
1.3721862636843035e-01 -1.8725802466942314e-02 0.0000000000000000e+00 
1.4758029407823647e-01 -1.9209247060704353e-02 5.4682080745893117e-09 
1.3721863873347367e-01 -1.8725804910809170e-02 1.6866433765727081e-09 
1.6903077451834622e-01 1.9362826148088409e-02 0.0000000000000000e+00 
1.6903075518137178e-01 1.9362816692672379e-02 0.0000000000000000e+00 
1.5809896186277109e-01 1.8930181833780091e-02 0.0000000000000000e+00 
1.5809894172888961e-01 1.8930168510348240e-02 0.0000000000000000e+00 
1.6903074605099672e-01 1.9362808998815421e-02 1.0659973924870740e-09 
1.5809894551216253e-01 1.8930163377661506e-02 -1.5443968083088832e-09 
1.6910862244125252e-01 -2.0192037457050831e-02 0.0000000000000000e+00 
1.6910859898144201e-01 -2.0192033590939497e-02 0.0000000000000000e+00 
1.5820428196627040e-01 -1.9700819753494574e-02 0.0000000000000000e+00 
1.5820425972564175e-01 -1.9700822096304971e-02 0.0000000000000000e+00 
1.6910861241166181e-01 -2.0192030093035412e-02 3.7884611847801203e-09 
1.5820428489368010e-01 -1.9700819776821220e-02 2.5754096766256740e-09 
1.9170050431188701e-01 2.0018527499829918e-02 0.0000000000000000e+00 
1.9170048558334368e-01 2.0018527622036236e-02 0.0000000000000000e+00 
1.8026757874104293e-01 1.9729128257326978e-02 0.0000000000000000e+00 
1.8026755825012664e-01 1.9729123058824072e-02 0.0000000000000000e+00 
1.9170049173186768e-01 2.0018525562539215e-02 5.4000507997778962e-09 
1.8026755346453965e-01 1.9729120254463928e-02 1.8612894234797784e-09 
1.9174687308304622e-01 -2.0997837308462532e-02 0.0000000000000000e+00 
1.9174685858336477e-01 -2.0997837608243759e-02 0.0000000000000000e+00 
1.8031658392029876e-01 -2.0644478788774154e-02 0.0000000000000000e+00 
1.8031656527351736e-01 -2.0644482894884485e-02 0.0000000000000000e+00 
1.9174686477801053e-01 -2.0997829211603640e-02 1.0151210600318261e-09 
1.8031657796674461e-01 -2.0644470352615470e-02 -1.5892690227480969e-10 
2.1485444501772455e-01 2.0382505194648043e-02 0.0000000000000000e+00 
2.1485443977240365e-01 2.0382508181887748e-02 0.0000000000000000e+00 
2.0325862078762705e-01 2.0222200578134109e-02 0.0000000000000000e+00 
2.0325860445038149e-01 2.0222205593088096e-02 0.0000000000000000e+00 
2.1485443522439651e-01 2.0382510140664792e-02 4.4285857066990312e-09 
2.0325860740735779e-01 2.0222203673688717e-02 3.7064607802998867e-09 
2.1494992512743019e-01 -2.1369384754886332e-02 0.0000000000000000e+00 
2.1494992021737472e-01 -2.1369398225882092e-02 0.0000000000000000e+00 
2.0331715965820607e-01 -2.1216788712660008e-02 0.0000000000000000e+00 
2.0331715668060385e-01 -2.1216796772311673e-02 0.0000000000000000e+00 
2.1494993607060753e-01 -2.1369393711327143e-02 -6.9148003587312204e-10 
2.0331716254885313e-01 -2.1216789583899671e-02 -3.5984347803335769e-09 
2.3826300519585736e-01 2.0757685621207059e-02 0.0000000000000000e+00 
2.3826301118565915e-01 2.0757668908492573e-02 0.0000000000000000e+00 
2.2649099210126283e-01 2.0566917929763465e-02 0.0000000000000000e+00 
2.2649100004465900e-01 2.0566923965089967e-02 0.0000000000000000e+00 
2.3826300768769887e-01 2.0757680908587584e-02 -9.1039228171936275e-10 
2.2649099001194040e-01 2.0566923886166679e-02 2.0167100986644671e-09 
2.3832513556708801e-01 -2.1685467623997895e-02 0.0000000000000000e+00 
2.3832512642947581e-01 -2.1685462821045054e-02 0.0000000000000000e+00 
2.2660103963806488e-01 -2.1514603441804149e-02 0.0000000000000000e+00 
2.2660104151612193e-01 -2.1514610372834808e-02 0.0000000000000000e+00 
2.3832513821024931e-01 -2.1685460892901246e-02 5.5806965338873510e-09 
2.2660106069487107e-01 -2.1514605838698235e-02 4.7011618772925502e-10 
2.6210827793969127e-01 2.0997456954127372e-02 0.0000000000000000e+00 
2.6210823187383608e-01 2.0997450828140293e-02 0.0000000000000000e+00 
2.5016329048078551e-01 2.0903092628061674e-02 0.0000000000000000e+00 
2.5016326932785626e-01 2.0903073567740484e-02 0.0000000000000000e+00 
2.6210825827475470e-01 2.0997451673603618e-02 -7.1678484819157454e-09 
2.5016328737949417e-01 2.0903082469188802e-02 -3.9506915817478853e-09 
2.6212610940089653e-01 -2.1965539848438201e-02 0.0000000000000000e+00 
2.6212607619430484e-01 -2.1965530021537710e-02 0.0000000000000000e+00 
2.5017140515650466e-01 -2.1850366927835804e-02 0.0000000000000000e+00 
2.5017138072073941e-01 -2.1850356088614867e-02 0.0000000000000000e+00 
2.6212609186383373e-01 -2.1965536690779486e-02 9.7983247365418934e-09 
2.5017139372791641e-01 -2.1850362140602576e-02 6.1704980604365601e-09 
2.8615541688801838e-01 2.1110037240379881e-02 0.0000000000000000e+00 
2.8609602271998835e-01 6.6573653333756051e-03 0.0000000000000000e+00 
2.8615538778276939e-01 2.1110052774517753e-02 0.0000000000000000e+00 
2.8609598732271369e-01 6.6573608159407180e-03 0.0000000000000000e+00 
2.7410188948857417e-01 2.1067981507523332e-02 0.0000000000000000e+00 
2.8613239400359380e-01 1.3875183009418930e-02 0.0000000000000000e+00 
2.7410184979932017e-01 2.1067984236489340e-02 0.0000000000000000e+00 
2.8613236055546298e-01 1.3875181913622631e-02 0.0000000000000000e+00 
2.8615539625266734e-01 2.1110041253679983e-02 -7.3436846803126670e-09 
2.8609601078470442e-01 6.6573731892002469e-03 -3.1876473745841952e-09 
2.7410187256119067e-01 2.1067986501254667e-02 -9.1601675432761866e-09 
2.8613237396206470e-01 1.3875189770546616e-02 -5.5839406205565638e-09 
2.8605811866959963e-01 -7.7263033826965857e-03 0.0000000000000000e+00 
2.8605807973133157e-01 -7.7263004901578485e-03 0.0000000000000000e+00 
2.8606911974137106e-01 -5.4943332383003223e-04 0.0000000000000000e+00 
2.8606908350224736e-01 -5.4943022754879312e-04 0.0000000000000000e+00 
2.8605810585983510e-01 -7.7263018777876061e-03 3.4194175322777007e-09 
2.8606910831677190e-01 -5.4943005313562183e-04 -4.0863521702637209e-10 
2.8607239904937215e-01 -2.2036414358980606e-02 0.0000000000000000e+00 
2.8607236966894589e-01 -2.2036421062464992e-02 0.0000000000000000e+00 
2.7411285166385679e-01 -2.2021012918167028e-02 0.0000000000000000e+00 
2.8606468320398964e-01 -1.4876322072003925e-02 0.0000000000000000e+00 
2.7411281013239297e-01 -2.2021016528397441e-02 0.0000000000000000e+00 
2.8606464768120365e-01 -1.4876321478873909e-02 0.0000000000000000e+00 
2.8607238516903066e-01 -2.2036416667283450e-02 1.2768525816284107e-08 
2.7411283679638543e-01 -2.2021019973646607e-02 9.5777611952808120e-09 
2.8606467168602190e-01 -1.4876325666790036e-02 9.3560030786459674e-09 

VECTORS Stress float
1.6073675534150135e+02 -3.4927394612222713e+00 1.6948597489374867e-12 
1.6213796560087991e+02 -6.0990323326369094e+00 2.1893902712306401e-12 
1.6073675534150135e+02 -3.4927394612222713e+00 1.6948597489374867e-12 
1.6213796560087991e+02 -6.0990323326369094e+00 2.1893902712306401e-12 
1.6189169488121459e+02 -3.6056280426225271e+00 1.8949323050970934e-12 
1.6189169488121459e+02 -3.6056280426225271e+00 1.8949323050970934e-12 
1.6073675534150135e+02 -3.4927394612222713e+00 1.6948597489374867e-12 
1.6213796560087991e+02 -6.0990323326369094e+00 2.1893902712306401e-12 
1.6189169488121459e+02 -3.6056280426225271e+00 1.8949323050970934e-12 
-4.3825279646463471e+01 2.4284698227212971e+00 -8.2573539773373741e-13 
-4.6368065806526374e+01 1.7716687381585530e+00 -9.8965921950689146e-13 
-4.3825279646463471e+01 2.4284698227212971e+00 -8.2573539773373741e-13 
-4.6368065806526374e+01 1.7716687381585530e+00 -9.8965921950689146e-13 
-4.5803033782171894e+01 1.2984191814486223e+00 -9.1122707523509688e-13 
-4.5803033782171894e+01 1.2984191814486223e+00 -9.1122707523509688e-13 
-4.3825279646463471e+01 2.4284698227212971e+00 -8.2573539773373741e-13 
-4.6368065806526374e+01 1.7716687381585530e+00 -9.8965921950689146e-13 
-4.5803033782171894e+01 1.2984191814486223e+00 -9.1122707523509688e-13 
1.6179367840193106e+02 -1.3620218299038640e+01 1.8738424419061337e-12 
1.6179367840193106e+02 -1.3620218299038640e+01 1.8738424419061337e-12 
1.6200967874584433e+02 -9.8164520688590073e+00 2.3717850711072892e-12 
1.6200967874584433e+02 -9.8164520688590073e+00 2.3717850711072892e-12 
1.6179367840193106e+02 -1.3620218299038640e+01 1.8738424419061337e-12 
1.6200967874584433e+02 -9.8164520688590073e+00 2.3717850711072892e-12 
-4.6100586805255261e+01 4.2466889864409723e+00 -8.8796639014964109e-13 
-4.6100586805255261e+01 4.2466889864409723e+00 -8.8796639014964109e-13 
-4.6270794778846380e+01 2.9913103592076595e+00 -1.0518993888116876e-12 
-4.6270794778846380e+01 2.9913103592076595e+00 -1.0518993888116876e-12 
-4.6100586805255261e+01 4.2466889864409723e+00 -8.8796639014964109e-13 
-4.6270794778846380e+01 2.9913103592076595e+00 -1.0518993888116876e-12 
1.6109117407352022e+02 -2.0731021041338295e+01 -5.1751700724535242e-13 
1.6109117407352022e+02 -2.0731021041338295e+01 -5.1751700724535242e-13 
1.6146901557712616e+02 -1.7224877157374806e+01 6.1200648932431647e-13 
1.6146901557712616e+02 -1.7224877157374806e+01 6.1200648932431647e-13 
1.6109117407352022e+02 -2.0731021041338295e+01 -5.1751700724535242e-13 
1.6146901557712616e+02 -1.7224877157374806e+01 6.1200648932431647e-13 
-4.5962614259319707e+01 6.5247239310231180e+00 7.9297971400740778e-14 
-4.5962614259319707e+01 6.5247239310231180e+00 7.9297971400740778e-14 
-4.5987450202215825e+01 5.4348178470391417e+00 -4.1335297301271731e-13 
-4.5987450202215825e+01 5.4348178470391417e+00 -4.1335297301271731e-13 
-4.5962614259319707e+01 6.5247239310231180e+00 7.9297971400740778e-14 
-4.5987450202215825e+01 5.4348178470391417e+00 -4.1335297301271731e-13 
1.5938279745614346e+02 -2.7412997305744739e+01 -6.4396849191202555e-13 
1.5938279745614346e+02 -2.7412997305744739e+01 -6.4396849191202555e-13 
1.6027654250360109e+02 -2.4170373853813658e+01 -7.8394645565036219e-13 
1.6027654250360109e+02 -2.4170373853813658e+01 -7.8394645565036219e-13 
1.5938279745614346e+02 -2.7412997305744739e+01 -6.4396849191202555e-13 
1.6027654250360109e+02 -2.4170373853813658e+01 -7.8394645565036219e-13 
-4.5425884727903849e+01 8.3742019274492350e+00 6.4759571127124434e-13 
-4.5425884727903849e+01 8.3742019274492350e+00 6.4759571127124434e-13 
-4.5677034368877571e+01 7.4695231715440968e+00 3.9484219211474735e-13 
-4.5677034368877571e+01 7.4695231715440968e+00 3.9484219211474735e-13 
-4.5425884727903849e+01 8.3742019274492350e+00 6.4759571127124434e-13 
-4.5677034368877571e+01 7.4695231715440968e+00 3.9484219211474735e-13 
1.5704878427786480e+02 -3.2052627060522354e+01 2.2287683702266564e-13 
1.5704878427786480e+02 -3.2052627060522354e+01 2.2287683702266564e-13 
1.5828550644396501e+02 -3.0002290482617127e+01 -2.2778847770720312e-13 
1.5828550644396501e+02 -3.0002290482617127e+01 -2.2778847770720312e-13 
1.5704878427786480e+02 -3.2052627060522354e+01 2.2287683702266564e-13 
1.5828550644396501e+02 -3.0002290482617127e+01 -2.2778847770720312e-13 
-4.4530540269347398e+01 9.6914114050430271e+00 5.8229574296635887e-13 
-4.4530540269347398e+01 9.6914114050430271e+00 5.8229574296635887e-13 
-4.5021727604479679e+01 9.0907910948485551e+00 6.9709213300197947e-13 
-4.5021727604479679e+01 9.0907910948485551e+00 6.9709213300197947e-13 
-4.4530540269347398e+01 9.6914114050430271e+00 5.8229574296635887e-13 
-4.5021727604479679e+01 9.0907910948485551e+00 6.9709213300197947e-13 
1.5401586832848585e+02 -3.5543761283830918e+01 -7.5502025314434160e-13 
1.5401586832848585e+02 -3.5543761283830918e+01 -7.5502025314434160e-13 
1.5569997839330767e+02 -3.3891817533955759e+01 1.8053768833601649e-13 
1.5569997839330767e+02 -3.3891817533955759e+01 1.8053768833601649e-13 
1.5401586832848585e+02 -3.5543761283830918e+01 -7.5502025314434160e-13 
1.5569997839330767e+02 -3.3891817533955759e+01 1.8053768833601649e-13 
-4.3294070708102879e+01 1.0615958739446683e+01 9.0276737269900033e-13 
-4.3294070708102879e+01 1.0615958739446683e+01 9.0276737269900033e-13 
-4.4019505397757371e+01 1.0242731736018982e+01 5.7534544145546274e-13 
-4.4019505397757371e+01 1.0242731736018982e+01 5.7534544145546274e-13 
-4.3294070708102879e+01 1.0615958739446683e+01 9.0276737269900033e-13 
-4.4019505397757371e+01 1.0242731736018982e+01 5.7534544145546274e-13 
1.5009750533584594e+02 -3.8706963779240255e+01 -2.8004146300390926e-12 
1.5009750533584594e+02 -3.8706963779240255e+01 -2.8004146300390926e-12 
1.5224385120010544e+02 -3.7174100416931878e+01 -1.9013760507824828e-12 
1.5224385120010544e+02 -3.7174100416931878e+01 -1.9013760507824828e-12 
1.5009750533584594e+02 -3.8706963779240255e+01 -2.8004146300390926e-12 
1.5224385120010544e+02 -3.7174100416931878e+01 -1.9013760507824828e-12 
-4.1754913010015400e+01 1.1385263736066008e+01 1.9009202768441023e-12 
-4.1754913010015400e+01 1.1385263736066008e+01 1.9009202768441023e-12 
-4.2621754289599380e+01 1.1020935296920811e+01 1.3488244726416770e-12 
-4.2621754289599380e+01 1.1020935296920811e+01 1.3488244726416770e-12 
-4.1754913010015400e+01 1.1385263736066008e+01 1.9009202768441023e-12 
-4.2621754289599380e+01 1.1020935296920811e+01 1.3488244726416770e-12 
1.4534543221707543e+02 -4.1435083734538239e+01 -3.3813052194567092e-12 
1.4534543221707543e+02 -4.1435083734538239e+01 -3.3813052194567092e-12 
1.4779258771699733e+02 -4.0186529364227113e+01 -3.4159945253344234e-12 
1.4779258771699733e+02 -4.0186529364227113e+01 -3.4159945253344234e-12 
1.4534543221707543e+02 -4.1435083734538239e+01 -3.3813052194567092e-12 
1.4779258771699733e+02 -4.0186529364227113e+01 -3.4159945253344234e-12 
-3.9939693225427845e+01 1.2077852745497125e+01 2.2224869480104327e-12 
-3.9939693225427845e+01 1.2077852745497125e+01 2.2224869480104327e-12 
-4.0873623068623090e+01 1.1783676314019203e+01 2.3994114100929434e-12 
-4.0873623068623090e+01 1.1783676314019203e+01 2.3994114100929434e-12 
-3.9939693225427845e+01 1.2077852745497125e+01 2.2224869480104327e-12 
-4.0873623068623090e+01 1.1783676314019203e+01 2.3994114100929434e-12 
1.4002395349215089e+02 -4.3239676132317186e+01 -1.2411170464843376e-12 
1.4002395349215089e+02 -4.3239676132317186e+01 -1.2411170464843376e-12 
1.4271394641970113e+02 -4.2377341474295918e+01 -2.5294749470788946e-12 
1.4271394641970113e+02 -4.2377341474295918e+01 -2.5294749470788946e-12 
1.4002395349215089e+02 -4.3239676132317186e+01 -1.2411170464843376e-12 
1.4271394641970113e+02 -4.2377341474295918e+01 -2.5294749470788946e-12 
-3.7868102783448421e+01 1.2366835145293408e+01 -1.6641542378792090e-13 
-3.7868102783448421e+01 1.2366835145293408e+01 -1.6641542378792090e-13 
-3.8889470098509207e+01 1.2205485224847280e+01 1.1617520620112222e-12 
-3.8889470098509207e+01 1.2205485224847280e+01 1.1617520620112222e-12 
-3.7868102783448421e+01 1.2366835145293408e+01 -1.6641542378792090e-13 
-3.8889470098509207e+01 1.2205485224847280e+01 1.1617520620112222e-12 
1.3405613813903267e+02 -4.4457034080371614e+01 2.6965218266784421e-12 
1.3405613813903267e+02 -4.4457034080371614e+01 2.6965218266784421e-12 
1.3707445173866370e+02 -4.3884255707260195e+01 7.1099621896060485e-13 
1.3707445173866370e+02 -4.3884255707260195e+01 7.1099621896060485e-13 
1.3405613813903267e+02 -4.4457034080371614e+01 2.6965218266784421e-12 
1.3707445173866370e+02 -4.3884255707260195e+01 7.1099621896060485e-13 
-3.5514166288629895e+01 1.2469557760451949e+01 -3.2172004359581639e-12 
-3.5514166288629895e+01 1.2469557760451949e+01 -3.2172004359581639e-12 
-3.6681594275911777e+01 1.2397039790636541e+01 -1.7753333263640557e-12 
-3.6681594275911777e+01 1.2397039790636541e+01 -1.7753333263640557e-12 
-3.5514166288629895e+01 1.2469557760451949e+01 -3.2172004359581639e-12 
-3.6681594275911777e+01 1.2397039790636541e+01 -1.7753333263640557e-12 
1.2761755459864958e+02 -4.4795374179543273e+01 3.6819025116872576e-12 
1.2761755459864958e+02 -4.4795374179543273e+01 3.6819025116872576e-12 
1.3090029497231347e+02 -4.4736969110603241e+01 3.6905893719424860e-12 
1.3090029497231347e+02 -4.4736969110603241e+01 3.6905893719424860e-12 
1.2761755459864958e+02 -4.4795374179543273e+01 3.6819025116872576e-12 
1.3090029497231347e+02 -4.4736969110603241e+01 3.6905893719424860e-12 
-3.2996351300861988e+01 1.2201688603989510e+01 -3.0812501815029831e-12 
-3.2996351300861988e+01 1.2201688603989510e+01 -3.0812501815029831e-12 
-3.4275535060032070e+01 1.2380891077948377e+01 -3.5902937213481799e-12 
-3.4275535060032070e+01 1.2380891077948377e+01 -3.5902937213481799e-12 
-3.2996351300861988e+01 1.2201688603989510e+01 -3.0812501815029831e-12 
-3.4275535060032070e+01 1.2380891077948377e+01 -3.5902937213481799e-12 
1.2055514100094629e+02 -4.4574855185048591e+01 6.6814864514158876e-13 
1.2055514100094629e+02 -4.4574855185048591e+01 6.6814864514158876e-13 
1.2420753110801380e+02 -4.4771411441189343e+01 2.7924348032085892e-12 
1.2420753110801380e+02 -4.4771411441189343e+01 2.7924348032085892e-12 
1.2055514100094629e+02 -4.4574855185048591e+01 6.6814864514158876e-13 
1.2420753110801380e+02 -4.4771411441189343e+01 2.7924348032085892e-12 
-3.0356541081391526e+01 1.1807589494237391e+01 -6.6084458639525754e-13 
-3.0356541081391526e+01 1.1807589494237391e+01 -6.6084458639525754e-13 
-3.1719430631925860e+01 1.2049092976429620e+01 -2.1506893118164730e-12 
-3.1719430631925860e+01 1.2049092976429620e+01 -2.1506893118164730e-12 
-3.0356541081391526e+01 1.1807589494237391e+01 -6.6084458639525754e-13 
-3.1719430631925860e+01 1.2049092976429620e+01 -2.1506893118164730e-12 
1.1271594691957213e+02 -4.3915928935387399e+01 -2.7377486787783512e-12 
1.1271594691957213e+02 -4.3915928935387399e+01 -2.7377486787783512e-12 
1.1675515863596115e+02 -4.4350110761748567e+01 -1.5336069196317891e-12 
1.1675515863596115e+02 -4.4350110761748567e+01 -1.5336069196317891e-12 
1.1271594691957213e+02 -4.3915928935387399e+01 -2.7377486787783512e-12 
1.1675515863596115e+02 -4.4350110761748567e+01 -1.5336069196317891e-12 
-2.7628648532451081e+01 1.1311803491125204e+01 1.6362330285915240e-12 
-2.7628648532451081e+01 1.1311803491125204e+01 1.6362330285915240e-12 
-2.9016668329644233e+01 1.1636775709221865e+01 7.8684160776519074e-13 
-2.9016668329644233e+01 1.1636775709221865e+01 7.8684160776519074e-13 
-2.7628648532451081e+01 1.1311803491125204e+01 1.6362330285915240e-12 
-2.9016668329644233e+01 1.1636775709221865e+01 7.8684160776519074e-13 
1.0436991899072368e+02 -4.2491211493999032e+01 -3.3101097240823519e-12 
1.0436991899072368e+02 -4.2491211493999032e+01 -3.3101097240823519e-12 
1.0853068153296584e+02 -4.3345158543782674e+01 -3.2809974266456940e-12 
1.0853068153296584e+02 -4.3345158543782674e+01 -3.2809974266456940e-12 
1.0436991899072368e+02 -4.2491211493999032e+01 -3.3101097240823519e-12 
1.0853068153296584e+02 -4.3345158543782674e+01 -3.2809974266456940e-12 
-2.4741408871168673e+01 1.0525811429447003e+01 2.1957726834666536e-12 
-2.4741408871168673e+01 1.0525811429447003e+01 2.1957726834666536e-12 
-2.6209406612020487e+01 1.0981790348031836e+01 2.1289514157125693e-12 
-2.6209406612020487e+01 1.0981790348031836e+01 2.1289514157125693e-12 
-2.4741408871168673e+01 1.0525811429447003e+01 2.1957726834666536e-12 
-2.6209406612020487e+01 1.0981790348031836e+01 2.1289514157125693e-12 
9.5574930132329968e+01 -3.9399242393333594e+01 -1.9071601963041145e-12 
9.5574930132329968e+01 -3.9399242393333594e+01 -1.9071601963041145e-12 
1.0018523235116751e+02 -4.1195992720436607e+01 -2.8001621296376431e-12 
1.0018523235116751e+02 -4.1195992720436607e+01 -2.8001621296376431e-12 
9.5574930132329968e+01 -3.9399242393333594e+01 -1.9071601963041145e-12 
1.0018523235116754e+02 -4.1195992720436919e+01 -2.8001621296376350e-12 
-2.1688038913085997e+01 9.3700755780116367e+00 1.2434817885435353e-12 
-2.1688038913085997e+01 9.3700755780116367e+00 1.2434817885435353e-12 
-2.3216534994911129e+01 9.8897225790813081e+00 1.7821357823704413e-12 
-2.3216534994911129e+01 9.8897225790813081e+00 1.7821357823704413e-12 
-2.1688038913085997e+01 9.3700755780116367e+00 1.2434817885435353e-12 
-2.3216534994911328e+01 9.8897225790815071e+00 1.7821357823704461e-12 
8.4537517201904663e+01 -3.4531662085043379e+01 1.3227714777560193e-12 
8.4537517201904663e+01 -3.4531662085043379e+01 1.3227714777560193e-12 
9.0163588962359242e+01 -3.6576349988111730e+01 -3.2334633723441458e-13 
9.0163588962359242e+01 -3.6576349988111730e+01 -3.2334633723441458e-13 
8.4537517201904663e+01 -3.4531662085043379e+01 1.3227714777560193e-12 
9.0163588962359242e+01 -3.6576349988111730e+01 -3.2334633723441458e-13 
-1.8716759339131212e+01 8.2902844028018805e+00 -2.4613885827067576e-13 
-1.8716759339131212e+01 8.2902844028018805e+00 -2.4613885827067576e-13 
-2.0176293609411974e+01 8.8341491142617627e+00 4.8424277892213701e-13 
-2.0176293609411974e+01 8.8341491142617627e+00 4.8424277892213701e-13 
-1.8716759339131212e+01 8.2902844028018805e+00 -2.4613885827067576e-13 
-2.0176293609411974e+01 8.8341491142617627e+00 4.8424277892213701e-13 
7.5162138766314101e+01 -3.9158229223737273e+01 2.4484816950176753e-12 
7.5162138766314101e+01 -3.9158229223737273e+01 2.4484816950176753e-12 
8.0492425273471753e+01 -3.7502259469418128e+01 2.2725170145621936e-12 
8.0492425273471753e+01 -3.7502259469418128e+01 2.2725170145621936e-12 
7.5162138766314101e+01 -3.9158229223737273e+01 2.4484816950176753e-12 
8.0492425273471753e+01 -3.7502259469418213e+01 2.2725170145622194e-12 
-1.6563929144459820e+01 7.2437651599023347e+00 -5.6947027499139069e-13 
-1.6563929144459820e+01 7.2437651599023347e+00 -5.6947027499139069e-13 
-1.7532778634050299e+01 7.5329862197807778e+00 -5.6160015061340979e-13 
-1.7532778634050299e+01 7.5329862197807778e+00 -5.6160015061340979e-13 
-1.6563929144459820e+01 7.2437651599023347e+00 -5.6947027499139069e-13 
-1.7532778634050249e+01 7.5329862197806001e+00 -5.6160015061341706e-13 
3.3003518367186473e+01 2.7269069901617186e+01 4.4313697695764564e-13 
9.0100570431059381e+00 2.8156105890348186e+01 -6.0233444493295497e-14 
3.3003518367186473e+01 2.7269069901617186e+01 4.4313697695764564e-13 
9.0100570431059381e+00 2.8156105890348186e+01 -6.0233444493295497e-14 
5.9748286595586279e+01 -1.9676350734760703e+01 1.8443535302978155e-12 
1.5691938745014667e+01 3.5894301627184348e+01 -3.0980093447933864e-19 
5.9748286595586279e+01 -1.9676350734760703e+01 1.8443535302978155e-12 
1.5691938745014667e+01 3.5894301627184348e+01 -3.0980093447933864e-19 
3.3003518367186473e+01 2.7269069901617186e+01 4.4313697695764564e-13 
9.0100570431059381e+00 2.8156105890348186e+01 -6.0233444493295497e-14 
5.9748286595586279e+01 -1.9676350734760703e+01 1.8443535302978155e-12 
1.5691938745014667e+01 3.5894301627184348e+01 -3.0980093447933864e-19 
5.0537341359936514e+00 6.3529332453303198e+00 3.9614612326498772e-14 
5.0537341359936514e+00 6.3529332453303198e+00 3.9614612326498772e-14 
6.6839604078400292e+00 1.5666309719361799e+01 -2.6175841698040377e-20 
6.6839604078400292e+00 1.5666309719361799e+01 -2.6175841698040377e-20 
5.0537341359936514e+00 6.3529332453303198e+00 3.9614612326498772e-14 
6.6839604078400292e+00 1.5666309719361799e+01 -2.6175841698040377e-20 
-1.2456598760662246e+01 4.6124614063454885e+00 -2.4631528071637319e-13 
-1.2456598760662246e+01 4.6124614063454885e+00 -2.4631528071637319e-13 
-1.4376538581316296e+01 6.0726335039119235e+00 -4.6120724364034731e-13 
4.3972148639275233e-01 1.4059981683245866e+00 -5.3467972518450302e-20 
-1.4376538581316296e+01 6.0726335039119235e+00 -4.6120724364034731e-13 
4.3972148639275233e-01 1.4059981683245866e+00 -5.3467972518450302e-20 
-1.2456598760662246e+01 4.6124614063454885e+00 -2.4631528071637319e-13 
-1.4376538581316296e+01 6.0726335039119235e+00 -4.6120724364034731e-13 
4.3972148639274167e-01 1.4059981683246434e+00 -5.3467970902863168e-20 

