# vtk DataFile Version 2.0

ASCII

DATASET UNSTRUCTURED_GRID

POINTS 237 float 

-5.0000000000000003e-02  0.0000000000000000e+00  0.0000000000000000e+00
-5.0000000000000003e-02  5.5555555555555552e-02  0.0000000000000000e+00
-5.0000000000000003e-02  0.0000000000000000e+00  2.9999999999999999e-01
-5.0000000000000003e-02  5.5555555555555552e-02  2.9999999999999999e-01
-5.0000000000000003e-02  2.7777777777777776e-02  0.0000000000000000e+00
-5.0000000000000003e-02  2.7777777777777776e-02  2.9999999999999999e-01
-5.0000000000000003e-02  0.0000000000000000e+00  1.4999999999999999e-01
-5.0000000000000003e-02  5.5555555555555552e-02  1.4999999999999999e-01
-5.0000000000000003e-02  2.7777777777777776e-02  1.4999999999999999e-01
5.0000000000000003e-02  0.0000000000000000e+00  0.0000000000000000e+00
5.0000000000000003e-02  5.5555555555555552e-02  0.0000000000000000e+00
5.0000000000000003e-02  0.0000000000000000e+00  2.9999999999999999e-01
5.0000000000000003e-02  5.5555555555555552e-02  2.9999999999999999e-01
5.0000000000000003e-02  2.7777777777777776e-02  0.0000000000000000e+00
5.0000000000000003e-02  2.7777777777777776e-02  2.9999999999999999e-01
5.0000000000000003e-02  0.0000000000000000e+00  1.4999999999999999e-01
5.0000000000000003e-02  5.5555555555555552e-02  1.4999999999999999e-01
5.0000000000000003e-02  2.7777777777777776e-02  1.4999999999999999e-01
-5.0000000000000003e-02  1.1111111111111110e-01  0.0000000000000000e+00
-5.0000000000000003e-02  1.1111111111111110e-01  2.9999999999999999e-01
-5.0000000000000003e-02  8.3333333333333329e-02  0.0000000000000000e+00
-5.0000000000000003e-02  8.3333333333333329e-02  2.9999999999999999e-01
-5.0000000000000003e-02  1.1111111111111110e-01  1.4999999999999999e-01
-5.0000000000000003e-02  8.3333333333333329e-02  1.4999999999999999e-01
5.0000000000000003e-02  1.1111111111111110e-01  0.0000000000000000e+00
5.0000000000000003e-02  1.1111111111111110e-01  2.9999999999999999e-01
5.0000000000000003e-02  8.3333333333333329e-02  0.0000000000000000e+00
5.0000000000000003e-02  8.3333333333333329e-02  2.9999999999999999e-01
5.0000000000000003e-02  1.1111111111111110e-01  1.4999999999999999e-01
5.0000000000000003e-02  8.3333333333333329e-02  1.4999999999999999e-01
-5.0000000000000003e-02  1.6666666666666666e-01  0.0000000000000000e+00
-5.0000000000000003e-02  1.6666666666666666e-01  2.9999999999999999e-01
-5.0000000000000003e-02  1.3888888888888890e-01  0.0000000000000000e+00
-5.0000000000000003e-02  1.3888888888888890e-01  2.9999999999999999e-01
-5.0000000000000003e-02  1.6666666666666666e-01  1.4999999999999999e-01
-5.0000000000000003e-02  1.3888888888888890e-01  1.4999999999999999e-01
5.0000000000000003e-02  1.6666666666666666e-01  0.0000000000000000e+00
5.0000000000000003e-02  1.6666666666666666e-01  2.9999999999999999e-01
5.0000000000000003e-02  1.3888888888888890e-01  0.0000000000000000e+00
5.0000000000000003e-02  1.3888888888888890e-01  2.9999999999999999e-01
5.0000000000000003e-02  1.6666666666666666e-01  1.4999999999999999e-01
5.0000000000000003e-02  1.3888888888888890e-01  1.4999999999999999e-01
-5.0000000000000003e-02  2.2222222222222221e-01  0.0000000000000000e+00
-5.0000000000000003e-02  2.2222222222222221e-01  2.9999999999999999e-01
-5.0000000000000003e-02  1.9444444444444442e-01  0.0000000000000000e+00
-5.0000000000000003e-02  1.9444444444444442e-01  2.9999999999999999e-01
-5.0000000000000003e-02  2.2222222222222221e-01  1.4999999999999999e-01
-5.0000000000000003e-02  1.9444444444444442e-01  1.4999999999999999e-01
5.0000000000000003e-02  2.2222222222222221e-01  0.0000000000000000e+00
5.0000000000000003e-02  2.2222222222222221e-01  2.9999999999999999e-01
5.0000000000000003e-02  1.9444444444444442e-01  0.0000000000000000e+00
5.0000000000000003e-02  1.9444444444444442e-01  2.9999999999999999e-01
5.0000000000000003e-02  2.2222222222222221e-01  1.4999999999999999e-01
5.0000000000000003e-02  1.9444444444444442e-01  1.4999999999999999e-01
-5.0000000000000003e-02  2.7777777777777779e-01  0.0000000000000000e+00
-5.0000000000000003e-02  2.7777777777777779e-01  2.9999999999999999e-01
-5.0000000000000003e-02  2.5000000000000000e-01  0.0000000000000000e+00
-5.0000000000000003e-02  2.5000000000000000e-01  2.9999999999999999e-01
-5.0000000000000003e-02  2.7777777777777779e-01  1.4999999999999999e-01
-5.0000000000000003e-02  2.5000000000000000e-01  1.4999999999999999e-01
5.0000000000000003e-02  2.7777777777777779e-01  0.0000000000000000e+00
5.0000000000000003e-02  2.7777777777777779e-01  2.9999999999999999e-01
5.0000000000000003e-02  2.5000000000000000e-01  0.0000000000000000e+00
5.0000000000000003e-02  2.5000000000000000e-01  2.9999999999999999e-01
5.0000000000000003e-02  2.7777777777777779e-01  1.4999999999999999e-01
5.0000000000000003e-02  2.5000000000000000e-01  1.4999999999999999e-01
-5.0000000000000003e-02  3.3333333333333331e-01  0.0000000000000000e+00
-5.0000000000000003e-02  3.3333333333333331e-01  2.9999999999999999e-01
-5.0000000000000003e-02  3.0555555555555558e-01  0.0000000000000000e+00
-5.0000000000000003e-02  3.0555555555555558e-01  2.9999999999999999e-01
-5.0000000000000003e-02  3.3333333333333331e-01  1.4999999999999999e-01
-5.0000000000000003e-02  3.0555555555555558e-01  1.4999999999999999e-01
5.0000000000000003e-02  3.3333333333333331e-01  0.0000000000000000e+00
5.0000000000000003e-02  3.3333333333333331e-01  2.9999999999999999e-01
5.0000000000000003e-02  3.0555555555555558e-01  0.0000000000000000e+00
5.0000000000000003e-02  3.0555555555555558e-01  2.9999999999999999e-01
5.0000000000000003e-02  3.3333333333333331e-01  1.4999999999999999e-01
5.0000000000000003e-02  3.0555555555555558e-01  1.4999999999999999e-01
-5.0000000000000003e-02  3.8888888888888884e-01  0.0000000000000000e+00
-5.0000000000000003e-02  3.8888888888888884e-01  2.9999999999999999e-01
-5.0000000000000003e-02  3.6111111111111105e-01  0.0000000000000000e+00
-5.0000000000000003e-02  3.6111111111111105e-01  2.9999999999999999e-01
-5.0000000000000003e-02  3.8888888888888884e-01  1.4999999999999999e-01
-5.0000000000000003e-02  3.6111111111111105e-01  1.4999999999999999e-01
5.0000000000000003e-02  3.8888888888888884e-01  0.0000000000000000e+00
5.0000000000000003e-02  3.8888888888888884e-01  2.9999999999999999e-01
5.0000000000000003e-02  3.6111111111111105e-01  0.0000000000000000e+00
5.0000000000000003e-02  3.6111111111111105e-01  2.9999999999999999e-01
5.0000000000000003e-02  3.8888888888888884e-01  1.4999999999999999e-01
5.0000000000000003e-02  3.6111111111111105e-01  1.4999999999999999e-01
-5.0000000000000003e-02  4.4444444444444442e-01  0.0000000000000000e+00
-5.0000000000000003e-02  4.4444444444444442e-01  2.9999999999999999e-01
-5.0000000000000003e-02  4.1666666666666663e-01  0.0000000000000000e+00
-5.0000000000000003e-02  4.1666666666666663e-01  2.9999999999999999e-01
-5.0000000000000003e-02  4.4444444444444442e-01  1.4999999999999999e-01
-5.0000000000000003e-02  4.1666666666666663e-01  1.4999999999999999e-01
5.0000000000000003e-02  4.4444444444444442e-01  0.0000000000000000e+00
5.0000000000000003e-02  4.4444444444444442e-01  2.9999999999999999e-01
5.0000000000000003e-02  4.1666666666666663e-01  0.0000000000000000e+00
5.0000000000000003e-02  4.1666666666666663e-01  2.9999999999999999e-01
5.0000000000000003e-02  4.4444444444444442e-01  1.4999999999999999e-01
5.0000000000000003e-02  4.1666666666666663e-01  1.4999999999999999e-01
-5.0000000000000003e-02  5.0000000000000000e-01  0.0000000000000000e+00
-5.0000000000000003e-02  5.0000000000000000e-01  2.9999999999999999e-01
-5.0000000000000003e-02  4.7222222222222221e-01  0.0000000000000000e+00
-5.0000000000000003e-02  4.7222222222222221e-01  2.9999999999999999e-01
-5.0000000000000003e-02  5.0000000000000000e-01  1.4999999999999999e-01
-5.0000000000000003e-02  4.7222222222222221e-01  1.4999999999999999e-01
5.0000000000000003e-02  5.0000000000000000e-01  0.0000000000000000e+00
5.0000000000000003e-02  5.0000000000000000e-01  2.9999999999999999e-01
5.0000000000000003e-02  4.7222222222222221e-01  0.0000000000000000e+00
5.0000000000000003e-02  4.7222222222222221e-01  2.9999999999999999e-01
5.0000000000000003e-02  5.0000000000000000e-01  1.4999999999999999e-01
5.0000000000000003e-02  4.7222222222222221e-01  1.4999999999999999e-01
-5.0000000000000003e-02  5.5555555555555558e-01  0.0000000000000000e+00
-5.0000000000000003e-02  5.5555555555555558e-01  2.9999999999999999e-01
-5.0000000000000003e-02  5.2777777777777779e-01  0.0000000000000000e+00
-5.0000000000000003e-02  5.2777777777777779e-01  2.9999999999999999e-01
-5.0000000000000003e-02  5.5555555555555558e-01  1.4999999999999999e-01
-5.0000000000000003e-02  5.2777777777777779e-01  1.4999999999999999e-01
5.0000000000000003e-02  5.5555555555555558e-01  0.0000000000000000e+00
5.0000000000000003e-02  5.5555555555555558e-01  2.9999999999999999e-01
5.0000000000000003e-02  5.2777777777777779e-01  0.0000000000000000e+00
5.0000000000000003e-02  5.2777777777777779e-01  2.9999999999999999e-01
5.0000000000000003e-02  5.5555555555555558e-01  1.4999999999999999e-01
5.0000000000000003e-02  5.2777777777777779e-01  1.4999999999999999e-01
-5.0000000000000003e-02  6.1111111111111105e-01  0.0000000000000000e+00
-5.0000000000000003e-02  6.1111111111111105e-01  2.9999999999999999e-01
-5.0000000000000003e-02  5.8333333333333326e-01  0.0000000000000000e+00
-5.0000000000000003e-02  5.8333333333333326e-01  2.9999999999999999e-01
-5.0000000000000003e-02  6.1111111111111105e-01  1.4999999999999999e-01
-5.0000000000000003e-02  5.8333333333333326e-01  1.4999999999999999e-01
5.0000000000000003e-02  6.1111111111111105e-01  0.0000000000000000e+00
5.0000000000000003e-02  6.1111111111111105e-01  2.9999999999999999e-01
5.0000000000000003e-02  5.8333333333333326e-01  0.0000000000000000e+00
5.0000000000000003e-02  5.8333333333333326e-01  2.9999999999999999e-01
5.0000000000000003e-02  6.1111111111111105e-01  1.4999999999999999e-01
5.0000000000000003e-02  5.8333333333333326e-01  1.4999999999999999e-01
-5.0000000000000003e-02  6.6666666666666663e-01  0.0000000000000000e+00
-5.0000000000000003e-02  6.6666666666666663e-01  2.9999999999999999e-01
-5.0000000000000003e-02  6.3888888888888884e-01  0.0000000000000000e+00
-5.0000000000000003e-02  6.3888888888888884e-01  2.9999999999999999e-01
-5.0000000000000003e-02  6.6666666666666663e-01  1.4999999999999999e-01
-5.0000000000000003e-02  6.3888888888888884e-01  1.4999999999999999e-01
5.0000000000000003e-02  6.6666666666666663e-01  0.0000000000000000e+00
5.0000000000000003e-02  6.6666666666666663e-01  2.9999999999999999e-01
5.0000000000000003e-02  6.3888888888888884e-01  0.0000000000000000e+00
5.0000000000000003e-02  6.3888888888888884e-01  2.9999999999999999e-01
5.0000000000000003e-02  6.6666666666666663e-01  1.4999999999999999e-01
5.0000000000000003e-02  6.3888888888888884e-01  1.4999999999999999e-01
-5.0000000000000003e-02  7.2222222222222221e-01  0.0000000000000000e+00
-5.0000000000000003e-02  7.2222222222222221e-01  2.9999999999999999e-01
-5.0000000000000003e-02  6.9444444444444442e-01  0.0000000000000000e+00
-5.0000000000000003e-02  6.9444444444444442e-01  2.9999999999999999e-01
-5.0000000000000003e-02  7.2222222222222221e-01  1.4999999999999999e-01
-5.0000000000000003e-02  6.9444444444444442e-01  1.4999999999999999e-01
5.0000000000000003e-02  7.2222222222222221e-01  0.0000000000000000e+00
5.0000000000000003e-02  7.2222222222222221e-01  2.9999999999999999e-01
5.0000000000000003e-02  6.9444444444444442e-01  0.0000000000000000e+00
5.0000000000000003e-02  6.9444444444444442e-01  2.9999999999999999e-01
5.0000000000000003e-02  7.2222222222222221e-01  1.4999999999999999e-01
5.0000000000000003e-02  6.9444444444444442e-01  1.4999999999999999e-01
-5.0000000000000003e-02  7.7777777777777768e-01  0.0000000000000000e+00
-5.0000000000000003e-02  7.7777777777777768e-01  2.9999999999999999e-01
-5.0000000000000003e-02  7.5000000000000000e-01  0.0000000000000000e+00
-5.0000000000000003e-02  7.5000000000000000e-01  2.9999999999999999e-01
-5.0000000000000003e-02  7.7777777777777768e-01  1.4999999999999999e-01
-5.0000000000000003e-02  7.5000000000000000e-01  1.4999999999999999e-01
5.0000000000000003e-02  7.7777777777777768e-01  0.0000000000000000e+00
5.0000000000000003e-02  7.7777777777777768e-01  2.9999999999999999e-01
5.0000000000000003e-02  7.5000000000000000e-01  0.0000000000000000e+00
5.0000000000000003e-02  7.5000000000000000e-01  2.9999999999999999e-01
5.0000000000000003e-02  7.7777777777777768e-01  1.4999999999999999e-01
5.0000000000000003e-02  7.5000000000000000e-01  1.4999999999999999e-01
-5.0000000000000003e-02  8.3333333333333326e-01  0.0000000000000000e+00
-5.0000000000000003e-02  8.3333333333333326e-01  2.9999999999999999e-01
-5.0000000000000003e-02  8.0555555555555547e-01  0.0000000000000000e+00
-5.0000000000000003e-02  8.0555555555555547e-01  2.9999999999999999e-01
-5.0000000000000003e-02  8.3333333333333326e-01  1.4999999999999999e-01
-5.0000000000000003e-02  8.0555555555555536e-01  1.4999999999999999e-01
5.0000000000000003e-02  8.3333333333333326e-01  0.0000000000000000e+00
5.0000000000000003e-02  8.3333333333333326e-01  2.9999999999999999e-01
5.0000000000000003e-02  8.0555555555555547e-01  0.0000000000000000e+00
5.0000000000000003e-02  8.0555555555555547e-01  2.9999999999999999e-01
5.0000000000000003e-02  8.3333333333333326e-01  1.4999999999999999e-01
5.0000000000000003e-02  8.0555555555555536e-01  1.4999999999999999e-01
-5.0000000000000003e-02  8.8888888888888884e-01  0.0000000000000000e+00
-5.0000000000000003e-02  8.8888888888888884e-01  2.9999999999999999e-01
-5.0000000000000003e-02  8.6111111111111105e-01  0.0000000000000000e+00
-5.0000000000000003e-02  8.6111111111111105e-01  2.9999999999999999e-01
-5.0000000000000003e-02  8.8888888888888884e-01  1.4999999999999999e-01
-5.0000000000000003e-02  8.6111111111111105e-01  1.4999999999999999e-01
5.0000000000000003e-02  8.8888888888888884e-01  0.0000000000000000e+00
5.0000000000000003e-02  8.8888888888888884e-01  2.9999999999999999e-01
5.0000000000000003e-02  8.6111111111111105e-01  0.0000000000000000e+00
5.0000000000000003e-02  8.6111111111111105e-01  2.9999999999999999e-01
5.0000000000000003e-02  8.8888888888888884e-01  1.4999999999999999e-01
5.0000000000000003e-02  8.6111111111111105e-01  1.4999999999999999e-01
-5.0000000000000003e-02  9.4444444444444442e-01  0.0000000000000000e+00
-5.0000000000000003e-02  9.4444444444444442e-01  2.9999999999999999e-01
-5.0000000000000003e-02  9.1666666666666663e-01  0.0000000000000000e+00
-5.0000000000000003e-02  9.1666666666666663e-01  2.9999999999999999e-01
-5.0000000000000003e-02  9.4444444444444442e-01  1.4999999999999999e-01
-5.0000000000000003e-02  9.1666666666666674e-01  1.4999999999999999e-01
5.0000000000000003e-02  9.4444444444444442e-01  0.0000000000000000e+00
5.0000000000000003e-02  9.4444444444444442e-01  2.9999999999999999e-01
5.0000000000000003e-02  9.1666666666666663e-01  0.0000000000000000e+00
5.0000000000000003e-02  9.1666666666666663e-01  2.9999999999999999e-01
5.0000000000000003e-02  9.4444444444444442e-01  1.4999999999999999e-01
5.0000000000000003e-02  9.1666666666666674e-01  1.4999999999999999e-01
-5.0000000000000003e-02  1.0000000000000000e+00  0.0000000000000000e+00
-1.6666666666666670e-02  1.0000000000000000e+00  0.0000000000000000e+00
-5.0000000000000003e-02  1.0000000000000000e+00  2.9999999999999999e-01
-1.6666666666666670e-02  1.0000000000000000e+00  2.9999999999999999e-01
-5.0000000000000003e-02  9.7222222222222221e-01  0.0000000000000000e+00
-3.3333333333333340e-02  1.0000000000000000e+00  0.0000000000000000e+00
-5.0000000000000003e-02  9.7222222222222221e-01  2.9999999999999999e-01
-3.3333333333333340e-02  1.0000000000000000e+00  2.9999999999999999e-01
-5.0000000000000003e-02  1.0000000000000000e+00  1.4999999999999999e-01
-1.6666666666666670e-02  1.0000000000000000e+00  1.4999999999999999e-01
-5.0000000000000003e-02  9.7222222222222221e-01  1.4999999999999999e-01
-3.3333333333333340e-02  1.0000000000000000e+00  1.4999999999999999e-01
1.6666666666666663e-02  1.0000000000000000e+00  0.0000000000000000e+00
1.6666666666666663e-02  1.0000000000000000e+00  2.9999999999999999e-01
-3.4694469519536142e-18  1.0000000000000000e+00  0.0000000000000000e+00
-3.4694469519536142e-18  1.0000000000000000e+00  2.9999999999999999e-01
1.6666666666666663e-02  1.0000000000000000e+00  1.4999999999999999e-01
-3.4694469519536142e-18  1.0000000000000000e+00  1.4999999999999999e-01
5.0000000000000003e-02  1.0000000000000000e+00  0.0000000000000000e+00
5.0000000000000003e-02  1.0000000000000000e+00  2.9999999999999999e-01
5.0000000000000003e-02  9.7222222222222221e-01  0.0000000000000000e+00
3.3333333333333333e-02  1.0000000000000000e+00  0.0000000000000000e+00
5.0000000000000003e-02  9.7222222222222221e-01  2.9999999999999999e-01
3.3333333333333333e-02  1.0000000000000000e+00  2.9999999999999999e-01
5.0000000000000003e-02  1.0000000000000000e+00  1.4999999999999999e-01
5.0000000000000003e-02  9.7222222222222221e-01  1.4999999999999999e-01
3.3333333333333333e-02  1.0000000000000000e+00  1.4999999999999999e-01

CELLS 0 0


CELL_TYPES 0


POINT_DATA 237

VECTORS VertexNormals float

0.0000000000000000e+00 0.0000000000000000e+00 0.0000000000000000e+00 
0.0000000000000000e+00 0.0000000000000000e+00 0.0000000000000000e+00 
0.0000000000000000e+00 0.0000000000000000e+00 0.0000000000000000e+00 
0.0000000000000000e+00 0.0000000000000000e+00 0.0000000000000000e+00 
0.0000000000000000e+00 0.0000000000000000e+00 0.0000000000000000e+00 
0.0000000000000000e+00 0.0000000000000000e+00 0.0000000000000000e+00 
0.0000000000000000e+00 0.0000000000000000e+00 0.0000000000000000e+00 
0.0000000000000000e+00 0.0000000000000000e+00 0.0000000000000000e+00 
0.0000000000000000e+00 0.0000000000000000e+00 0.0000000000000000e+00 
0.0000000000000000e+00 0.0000000000000000e+00 0.0000000000000000e+00 
0.0000000000000000e+00 0.0000000000000000e+00 0.0000000000000000e+00 
0.0000000000000000e+00 0.0000000000000000e+00 0.0000000000000000e+00 
0.0000000000000000e+00 0.0000000000000000e+00 0.0000000000000000e+00 
0.0000000000000000e+00 0.0000000000000000e+00 0.0000000000000000e+00 
0.0000000000000000e+00 0.0000000000000000e+00 0.0000000000000000e+00 
0.0000000000000000e+00 0.0000000000000000e+00 0.0000000000000000e+00 
0.0000000000000000e+00 0.0000000000000000e+00 0.0000000000000000e+00 
0.0000000000000000e+00 0.0000000000000000e+00 0.0000000000000000e+00 
0.0000000000000000e+00 0.0000000000000000e+00 0.0000000000000000e+00 
0.0000000000000000e+00 0.0000000000000000e+00 0.0000000000000000e+00 
0.0000000000000000e+00 0.0000000000000000e+00 0.0000000000000000e+00 
0.0000000000000000e+00 0.0000000000000000e+00 0.0000000000000000e+00 
0.0000000000000000e+00 0.0000000000000000e+00 0.0000000000000000e+00 
0.0000000000000000e+00 0.0000000000000000e+00 0.0000000000000000e+00 
0.0000000000000000e+00 0.0000000000000000e+00 0.0000000000000000e+00 
0.0000000000000000e+00 0.0000000000000000e+00 0.0000000000000000e+00 
0.0000000000000000e+00 0.0000000000000000e+00 0.0000000000000000e+00 
0.0000000000000000e+00 0.0000000000000000e+00 0.0000000000000000e+00 
0.0000000000000000e+00 0.0000000000000000e+00 0.0000000000000000e+00 
0.0000000000000000e+00 0.0000000000000000e+00 0.0000000000000000e+00 
0.0000000000000000e+00 0.0000000000000000e+00 0.0000000000000000e+00 
0.0000000000000000e+00 0.0000000000000000e+00 0.0000000000000000e+00 
0.0000000000000000e+00 0.0000000000000000e+00 0.0000000000000000e+00 
0.0000000000000000e+00 0.0000000000000000e+00 0.0000000000000000e+00 
0.0000000000000000e+00 0.0000000000000000e+00 0.0000000000000000e+00 
0.0000000000000000e+00 0.0000000000000000e+00 0.0000000000000000e+00 
0.0000000000000000e+00 0.0000000000000000e+00 0.0000000000000000e+00 
0.0000000000000000e+00 0.0000000000000000e+00 0.0000000000000000e+00 
0.0000000000000000e+00 0.0000000000000000e+00 0.0000000000000000e+00 
0.0000000000000000e+00 0.0000000000000000e+00 0.0000000000000000e+00 
0.0000000000000000e+00 0.0000000000000000e+00 0.0000000000000000e+00 
0.0000000000000000e+00 0.0000000000000000e+00 0.0000000000000000e+00 
0.0000000000000000e+00 0.0000000000000000e+00 0.0000000000000000e+00 
0.0000000000000000e+00 0.0000000000000000e+00 0.0000000000000000e+00 
0.0000000000000000e+00 0.0000000000000000e+00 0.0000000000000000e+00 
0.0000000000000000e+00 0.0000000000000000e+00 0.0000000000000000e+00 
0.0000000000000000e+00 0.0000000000000000e+00 0.0000000000000000e+00 
0.0000000000000000e+00 0.0000000000000000e+00 0.0000000000000000e+00 
0.0000000000000000e+00 0.0000000000000000e+00 0.0000000000000000e+00 
0.0000000000000000e+00 0.0000000000000000e+00 0.0000000000000000e+00 
0.0000000000000000e+00 0.0000000000000000e+00 0.0000000000000000e+00 
0.0000000000000000e+00 0.0000000000000000e+00 0.0000000000000000e+00 
0.0000000000000000e+00 0.0000000000000000e+00 0.0000000000000000e+00 
0.0000000000000000e+00 0.0000000000000000e+00 0.0000000000000000e+00 
0.0000000000000000e+00 0.0000000000000000e+00 0.0000000000000000e+00 
0.0000000000000000e+00 0.0000000000000000e+00 0.0000000000000000e+00 
0.0000000000000000e+00 0.0000000000000000e+00 0.0000000000000000e+00 
0.0000000000000000e+00 0.0000000000000000e+00 0.0000000000000000e+00 
0.0000000000000000e+00 0.0000000000000000e+00 0.0000000000000000e+00 
0.0000000000000000e+00 0.0000000000000000e+00 0.0000000000000000e+00 
0.0000000000000000e+00 0.0000000000000000e+00 0.0000000000000000e+00 
0.0000000000000000e+00 0.0000000000000000e+00 0.0000000000000000e+00 
0.0000000000000000e+00 0.0000000000000000e+00 0.0000000000000000e+00 
0.0000000000000000e+00 0.0000000000000000e+00 0.0000000000000000e+00 
0.0000000000000000e+00 0.0000000000000000e+00 0.0000000000000000e+00 
0.0000000000000000e+00 0.0000000000000000e+00 0.0000000000000000e+00 
0.0000000000000000e+00 0.0000000000000000e+00 0.0000000000000000e+00 
0.0000000000000000e+00 0.0000000000000000e+00 0.0000000000000000e+00 
0.0000000000000000e+00 0.0000000000000000e+00 0.0000000000000000e+00 
0.0000000000000000e+00 0.0000000000000000e+00 0.0000000000000000e+00 
0.0000000000000000e+00 0.0000000000000000e+00 0.0000000000000000e+00 
0.0000000000000000e+00 0.0000000000000000e+00 0.0000000000000000e+00 
0.0000000000000000e+00 0.0000000000000000e+00 0.0000000000000000e+00 
0.0000000000000000e+00 0.0000000000000000e+00 0.0000000000000000e+00 
0.0000000000000000e+00 0.0000000000000000e+00 0.0000000000000000e+00 
0.0000000000000000e+00 0.0000000000000000e+00 0.0000000000000000e+00 
0.0000000000000000e+00 0.0000000000000000e+00 0.0000000000000000e+00 
0.0000000000000000e+00 0.0000000000000000e+00 0.0000000000000000e+00 
0.0000000000000000e+00 0.0000000000000000e+00 0.0000000000000000e+00 
0.0000000000000000e+00 0.0000000000000000e+00 0.0000000000000000e+00 
0.0000000000000000e+00 0.0000000000000000e+00 0.0000000000000000e+00 
0.0000000000000000e+00 0.0000000000000000e+00 0.0000000000000000e+00 
0.0000000000000000e+00 0.0000000000000000e+00 0.0000000000000000e+00 
0.0000000000000000e+00 0.0000000000000000e+00 0.0000000000000000e+00 
0.0000000000000000e+00 0.0000000000000000e+00 0.0000000000000000e+00 
0.0000000000000000e+00 0.0000000000000000e+00 0.0000000000000000e+00 
0.0000000000000000e+00 0.0000000000000000e+00 0.0000000000000000e+00 
0.0000000000000000e+00 0.0000000000000000e+00 0.0000000000000000e+00 
0.0000000000000000e+00 0.0000000000000000e+00 0.0000000000000000e+00 
0.0000000000000000e+00 0.0000000000000000e+00 0.0000000000000000e+00 
0.0000000000000000e+00 0.0000000000000000e+00 0.0000000000000000e+00 
0.0000000000000000e+00 0.0000000000000000e+00 0.0000000000000000e+00 
0.0000000000000000e+00 0.0000000000000000e+00 0.0000000000000000e+00 
0.0000000000000000e+00 0.0000000000000000e+00 0.0000000000000000e+00 
0.0000000000000000e+00 0.0000000000000000e+00 0.0000000000000000e+00 
0.0000000000000000e+00 0.0000000000000000e+00 0.0000000000000000e+00 
0.0000000000000000e+00 0.0000000000000000e+00 0.0000000000000000e+00 
0.0000000000000000e+00 0.0000000000000000e+00 0.0000000000000000e+00 
0.0000000000000000e+00 0.0000000000000000e+00 0.0000000000000000e+00 
0.0000000000000000e+00 0.0000000000000000e+00 0.0000000000000000e+00 
0.0000000000000000e+00 0.0000000000000000e+00 0.0000000000000000e+00 
0.0000000000000000e+00 0.0000000000000000e+00 0.0000000000000000e+00 
0.0000000000000000e+00 0.0000000000000000e+00 0.0000000000000000e+00 
0.0000000000000000e+00 0.0000000000000000e+00 0.0000000000000000e+00 
0.0000000000000000e+00 0.0000000000000000e+00 0.0000000000000000e+00 
0.0000000000000000e+00 0.0000000000000000e+00 0.0000000000000000e+00 
0.0000000000000000e+00 0.0000000000000000e+00 0.0000000000000000e+00 
0.0000000000000000e+00 0.0000000000000000e+00 0.0000000000000000e+00 
0.0000000000000000e+00 0.0000000000000000e+00 0.0000000000000000e+00 
0.0000000000000000e+00 0.0000000000000000e+00 0.0000000000000000e+00 
0.0000000000000000e+00 0.0000000000000000e+00 0.0000000000000000e+00 
0.0000000000000000e+00 0.0000000000000000e+00 0.0000000000000000e+00 
0.0000000000000000e+00 0.0000000000000000e+00 0.0000000000000000e+00 
0.0000000000000000e+00 0.0000000000000000e+00 0.0000000000000000e+00 
0.0000000000000000e+00 0.0000000000000000e+00 0.0000000000000000e+00 
0.0000000000000000e+00 0.0000000000000000e+00 0.0000000000000000e+00 
0.0000000000000000e+00 0.0000000000000000e+00 0.0000000000000000e+00 
0.0000000000000000e+00 0.0000000000000000e+00 0.0000000000000000e+00 
0.0000000000000000e+00 0.0000000000000000e+00 0.0000000000000000e+00 
0.0000000000000000e+00 0.0000000000000000e+00 0.0000000000000000e+00 
0.0000000000000000e+00 0.0000000000000000e+00 0.0000000000000000e+00 
0.0000000000000000e+00 0.0000000000000000e+00 0.0000000000000000e+00 
0.0000000000000000e+00 0.0000000000000000e+00 0.0000000000000000e+00 
0.0000000000000000e+00 0.0000000000000000e+00 0.0000000000000000e+00 
0.0000000000000000e+00 0.0000000000000000e+00 0.0000000000000000e+00 
0.0000000000000000e+00 0.0000000000000000e+00 0.0000000000000000e+00 
0.0000000000000000e+00 0.0000000000000000e+00 0.0000000000000000e+00 
0.0000000000000000e+00 0.0000000000000000e+00 0.0000000000000000e+00 
0.0000000000000000e+00 0.0000000000000000e+00 0.0000000000000000e+00 
0.0000000000000000e+00 0.0000000000000000e+00 0.0000000000000000e+00 
0.0000000000000000e+00 0.0000000000000000e+00 0.0000000000000000e+00 
0.0000000000000000e+00 0.0000000000000000e+00 0.0000000000000000e+00 
0.0000000000000000e+00 0.0000000000000000e+00 0.0000000000000000e+00 
0.0000000000000000e+00 0.0000000000000000e+00 0.0000000000000000e+00 
0.0000000000000000e+00 0.0000000000000000e+00 0.0000000000000000e+00 
0.0000000000000000e+00 0.0000000000000000e+00 0.0000000000000000e+00 
0.0000000000000000e+00 0.0000000000000000e+00 0.0000000000000000e+00 
0.0000000000000000e+00 0.0000000000000000e+00 0.0000000000000000e+00 
0.0000000000000000e+00 0.0000000000000000e+00 0.0000000000000000e+00 
0.0000000000000000e+00 0.0000000000000000e+00 0.0000000000000000e+00 
0.0000000000000000e+00 0.0000000000000000e+00 0.0000000000000000e+00 
0.0000000000000000e+00 0.0000000000000000e+00 0.0000000000000000e+00 
0.0000000000000000e+00 0.0000000000000000e+00 0.0000000000000000e+00 
0.0000000000000000e+00 0.0000000000000000e+00 0.0000000000000000e+00 
0.0000000000000000e+00 0.0000000000000000e+00 0.0000000000000000e+00 
0.0000000000000000e+00 0.0000000000000000e+00 0.0000000000000000e+00 
0.0000000000000000e+00 0.0000000000000000e+00 0.0000000000000000e+00 
0.0000000000000000e+00 0.0000000000000000e+00 0.0000000000000000e+00 
0.0000000000000000e+00 0.0000000000000000e+00 0.0000000000000000e+00 
0.0000000000000000e+00 0.0000000000000000e+00 0.0000000000000000e+00 
0.0000000000000000e+00 0.0000000000000000e+00 0.0000000000000000e+00 
0.0000000000000000e+00 0.0000000000000000e+00 0.0000000000000000e+00 
0.0000000000000000e+00 0.0000000000000000e+00 0.0000000000000000e+00 
0.0000000000000000e+00 0.0000000000000000e+00 0.0000000000000000e+00 
0.0000000000000000e+00 0.0000000000000000e+00 0.0000000000000000e+00 
0.0000000000000000e+00 0.0000000000000000e+00 0.0000000000000000e+00 
0.0000000000000000e+00 0.0000000000000000e+00 0.0000000000000000e+00 
0.0000000000000000e+00 0.0000000000000000e+00 0.0000000000000000e+00 
0.0000000000000000e+00 0.0000000000000000e+00 0.0000000000000000e+00 
0.0000000000000000e+00 0.0000000000000000e+00 0.0000000000000000e+00 
0.0000000000000000e+00 0.0000000000000000e+00 0.0000000000000000e+00 
0.0000000000000000e+00 0.0000000000000000e+00 0.0000000000000000e+00 
0.0000000000000000e+00 0.0000000000000000e+00 0.0000000000000000e+00 
0.0000000000000000e+00 0.0000000000000000e+00 0.0000000000000000e+00 
0.0000000000000000e+00 0.0000000000000000e+00 0.0000000000000000e+00 
0.0000000000000000e+00 0.0000000000000000e+00 0.0000000000000000e+00 
0.0000000000000000e+00 0.0000000000000000e+00 0.0000000000000000e+00 
0.0000000000000000e+00 0.0000000000000000e+00 0.0000000000000000e+00 
0.0000000000000000e+00 0.0000000000000000e+00 0.0000000000000000e+00 
0.0000000000000000e+00 0.0000000000000000e+00 0.0000000000000000e+00 
0.0000000000000000e+00 0.0000000000000000e+00 0.0000000000000000e+00 
0.0000000000000000e+00 0.0000000000000000e+00 0.0000000000000000e+00 
0.0000000000000000e+00 0.0000000000000000e+00 0.0000000000000000e+00 
0.0000000000000000e+00 0.0000000000000000e+00 0.0000000000000000e+00 
0.0000000000000000e+00 0.0000000000000000e+00 0.0000000000000000e+00 
0.0000000000000000e+00 0.0000000000000000e+00 0.0000000000000000e+00 
0.0000000000000000e+00 0.0000000000000000e+00 0.0000000000000000e+00 
0.0000000000000000e+00 0.0000000000000000e+00 0.0000000000000000e+00 
0.0000000000000000e+00 0.0000000000000000e+00 0.0000000000000000e+00 
0.0000000000000000e+00 0.0000000000000000e+00 0.0000000000000000e+00 
0.0000000000000000e+00 0.0000000000000000e+00 0.0000000000000000e+00 
0.0000000000000000e+00 0.0000000000000000e+00 0.0000000000000000e+00 
0.0000000000000000e+00 0.0000000000000000e+00 0.0000000000000000e+00 
0.0000000000000000e+00 0.0000000000000000e+00 0.0000000000000000e+00 
0.0000000000000000e+00 0.0000000000000000e+00 0.0000000000000000e+00 
0.0000000000000000e+00 0.0000000000000000e+00 0.0000000000000000e+00 
0.0000000000000000e+00 0.0000000000000000e+00 0.0000000000000000e+00 
0.0000000000000000e+00 0.0000000000000000e+00 0.0000000000000000e+00 
0.0000000000000000e+00 0.0000000000000000e+00 0.0000000000000000e+00 
0.0000000000000000e+00 0.0000000000000000e+00 0.0000000000000000e+00 
0.0000000000000000e+00 0.0000000000000000e+00 0.0000000000000000e+00 
0.0000000000000000e+00 0.0000000000000000e+00 0.0000000000000000e+00 
0.0000000000000000e+00 0.0000000000000000e+00 0.0000000000000000e+00 
0.0000000000000000e+00 0.0000000000000000e+00 0.0000000000000000e+00 
0.0000000000000000e+00 0.0000000000000000e+00 0.0000000000000000e+00 
0.0000000000000000e+00 0.0000000000000000e+00 0.0000000000000000e+00 
0.0000000000000000e+00 0.0000000000000000e+00 0.0000000000000000e+00 
0.0000000000000000e+00 0.0000000000000000e+00 0.0000000000000000e+00 
0.0000000000000000e+00 0.0000000000000000e+00 0.0000000000000000e+00 
0.0000000000000000e+00 0.0000000000000000e+00 0.0000000000000000e+00 
0.0000000000000000e+00 0.0000000000000000e+00 0.0000000000000000e+00 
0.0000000000000000e+00 0.0000000000000000e+00 0.0000000000000000e+00 
0.0000000000000000e+00 0.0000000000000000e+00 0.0000000000000000e+00 
0.0000000000000000e+00 0.0000000000000000e+00 0.0000000000000000e+00 
0.0000000000000000e+00 0.0000000000000000e+00 0.0000000000000000e+00 
0.0000000000000000e+00 0.0000000000000000e+00 0.0000000000000000e+00 
0.0000000000000000e+00 0.0000000000000000e+00 0.0000000000000000e+00 
0.0000000000000000e+00 0.0000000000000000e+00 0.0000000000000000e+00 
0.0000000000000000e+00 0.0000000000000000e+00 0.0000000000000000e+00 
0.0000000000000000e+00 0.0000000000000000e+00 0.0000000000000000e+00 
0.0000000000000000e+00 0.0000000000000000e+00 0.0000000000000000e+00 
0.0000000000000000e+00 0.0000000000000000e+00 0.0000000000000000e+00 
0.0000000000000000e+00 0.0000000000000000e+00 0.0000000000000000e+00 
0.0000000000000000e+00 0.0000000000000000e+00 0.0000000000000000e+00 
0.0000000000000000e+00 0.0000000000000000e+00 0.0000000000000000e+00 
0.0000000000000000e+00 0.0000000000000000e+00 0.0000000000000000e+00 
0.0000000000000000e+00 0.0000000000000000e+00 0.0000000000000000e+00 
0.0000000000000000e+00 0.0000000000000000e+00 0.0000000000000000e+00 
0.0000000000000000e+00 0.0000000000000000e+00 0.0000000000000000e+00 
0.0000000000000000e+00 0.0000000000000000e+00 0.0000000000000000e+00 
0.0000000000000000e+00 0.0000000000000000e+00 0.0000000000000000e+00 
0.0000000000000000e+00 0.0000000000000000e+00 0.0000000000000000e+00 
0.0000000000000000e+00 0.0000000000000000e+00 0.0000000000000000e+00 
0.0000000000000000e+00 0.0000000000000000e+00 0.0000000000000000e+00 
0.0000000000000000e+00 0.0000000000000000e+00 0.0000000000000000e+00 
0.0000000000000000e+00 0.0000000000000000e+00 0.0000000000000000e+00 
0.0000000000000000e+00 0.0000000000000000e+00 0.0000000000000000e+00 
0.0000000000000000e+00 0.0000000000000000e+00 0.0000000000000000e+00 
0.0000000000000000e+00 0.0000000000000000e+00 0.0000000000000000e+00 
0.0000000000000000e+00 0.0000000000000000e+00 0.0000000000000000e+00 
0.0000000000000000e+00 0.0000000000000000e+00 0.0000000000000000e+00 
0.0000000000000000e+00 0.0000000000000000e+00 0.0000000000000000e+00 
0.0000000000000000e+00 0.0000000000000000e+00 0.0000000000000000e+00 
0.0000000000000000e+00 0.0000000000000000e+00 0.0000000000000000e+00 
0.0000000000000000e+00 0.0000000000000000e+00 0.0000000000000000e+00 
0.0000000000000000e+00 0.0000000000000000e+00 0.0000000000000000e+00 
0.0000000000000000e+00 0.0000000000000000e+00 0.0000000000000000e+00 

VECTORS Displacement float
0.0000000000000000e+00 0.0000000000000000e+00 0.0000000000000000e+00 
1.6565481601903795e-03 2.0042810518223976e-03 0.0000000000000000e+00 
0.0000000000000000e+00 0.0000000000000000e+00 0.0000000000000000e+00 
1.6565325058570111e-03 2.0042823750227030e-03 0.0000000000000000e+00 
6.9952411503202360e-04 1.0389888661582417e-03 0.0000000000000000e+00 
6.9951685555422975e-04 1.0389863446821721e-03 0.0000000000000000e+00 
0.0000000000000000e+00 0.0000000000000000e+00 0.0000000000000000e+00 
1.6565393579265099e-03 2.0042854465315129e-03 -5.3451219896601762e-09 
6.9951968242489308e-04 1.0389902711644252e-03 1.0602306302205184e-10 
0.0000000000000000e+00 0.0000000000000000e+00 0.0000000000000000e+00 
1.6843138122831082e-03 -2.2569395625037206e-03 0.0000000000000000e+00 
0.0000000000000000e+00 0.0000000000000000e+00 0.0000000000000000e+00 
1.6843124417862160e-03 -2.2569318684603915e-03 0.0000000000000000e+00 
7.0912249627054838e-04 -1.1467856945203275e-03 0.0000000000000000e+00 
7.0912856432647526e-04 -1.1467820952911121e-03 0.0000000000000000e+00 
0.0000000000000000e+00 0.0000000000000000e+00 0.0000000000000000e+00 
1.6843146857769926e-03 -2.2569419936895180e-03 -1.6928579391144988e-09 
7.0913048242523039e-04 -1.1467833629906861e-03 -1.6692092370387281e-09 
5.3195585144016734e-03 3.8522960852195600e-03 0.0000000000000000e+00 
5.3195514248327198e-03 3.8523058896859576e-03 0.0000000000000000e+00 
3.2292949684538030e-03 2.9487533492379803e-03 0.0000000000000000e+00 
3.2292880391391258e-03 2.9487543031127546e-03 0.0000000000000000e+00 
5.3195506223753589e-03 3.8522907837339818e-03 -4.9752912753938146e-09 
3.2292928364319488e-03 2.9487534281061436e-03 -3.1572531951912362e-09 
5.4380911457594001e-03 -4.3785002575383054e-03 0.0000000000000000e+00 
5.4381012828468890e-03 -4.3785147841423127e-03 0.0000000000000000e+00 
3.3265538914438696e-03 -3.3513191815333788e-03 0.0000000000000000e+00 
3.3265437609462070e-03 -3.3513253714662697e-03 0.0000000000000000e+00 
5.4380874153617332e-03 -4.3785048033538106e-03 -1.2973196427484787e-09 
3.3265512024450499e-03 -3.3513225021161441e-03 1.9441492932592278e-09 
1.1100904159734169e-02 5.5475856595123508e-03 0.0000000000000000e+00 
1.1100904905334181e-02 5.5475824571521596e-03 0.0000000000000000e+00 
7.9482012295791632e-03 4.7125715059911037e-03 0.0000000000000000e+00 
7.9482144697277084e-03 4.7125645494274773e-03 0.0000000000000000e+00 
1.1100901422979176e-02 5.5475718795654546e-03 -2.8696585616567571e-09 
7.9482059635112880e-03 4.7125657560599474e-03 -2.1915660657852751e-09 
1.1170578711677433e-02 -6.2768963689713384e-03 0.0000000000000000e+00 
1.1170594758337545e-02 -6.2768923381949990e-03 0.0000000000000000e+00 
8.0260006581510564e-03 -5.3486310836815786e-03 0.0000000000000000e+00 
8.0260186192688092e-03 -5.3486224745324489e-03 0.0000000000000000e+00 
1.1170583877779743e-02 -6.2768907780600342e-03 -1.7657448707706886e-09 
8.0259995406923648e-03 -5.3486232727612132e-03 1.9547572152955451e-09 
1.8737471653830093e-02 7.1382771750297131e-03 0.0000000000000000e+00 
1.8737460721008448e-02 7.1382795803564998e-03 0.0000000000000000e+00 
1.4697828814495419e-02 6.3560404553326677e-03 0.0000000000000000e+00 
1.4697826137628354e-02 6.3560287938972983e-03 0.0000000000000000e+00 
1.8737462932097528e-02 7.1382798679637659e-03 -2.1697141323172116e-09 
1.4697817790919901e-02 6.3560353038470694e-03 8.0383076622122061e-10 
1.8875068686033614e-02 -7.9526199087726849e-03 0.0000000000000000e+00 
1.8875070896367068e-02 -7.9526256936507961e-03 0.0000000000000000e+00 
1.4815664072892334e-02 -7.1322517213796548e-03 0.0000000000000000e+00 
1.4815655652312564e-02 -7.1322429665561749e-03 0.0000000000000000e+00 
1.8875072101135280e-02 -7.9526344902996933e-03 -3.8986423286713498e-09 
1.4815652284946785e-02 -7.1322512861362059e-03 6.7272333665216537e-10 
2.8166261733751016e-02 8.4291002765337405e-03 0.0000000000000000e+00 
2.8166276475518226e-02 8.4290862501214241e-03 0.0000000000000000e+00 
2.3265017556227639e-02 7.8301894964021949e-03 0.0000000000000000e+00 
2.3265030658666717e-02 7.8301869678419379e-03 0.0000000000000000e+00 
2.8166261609246058e-02 8.4290980144262045e-03 -1.0004159716101800e-09 
2.3265020236428402e-02 7.8301886434990094e-03 2.6064720512107999e-09 
2.8195926670272327e-02 -9.4799224929797386e-03 0.0000000000000000e+00 
2.8195948726271229e-02 -9.4799193073807214e-03 0.0000000000000000e+00 
2.3344469700708304e-02 -8.7332114899188913e-03 0.0000000000000000e+00 
2.3344478233392488e-02 -8.7332089195413069e-03 0.0000000000000000e+00 
2.8195938898600767e-02 -9.4799232535342261e-03 -3.6727103509999107e-09 
2.3344479179012501e-02 -8.7332126528947319e-03 1.2340425136952274e-11 
3.8845809132080869e-02 9.5855758949407299e-03 0.0000000000000000e+00 
3.8845790495245835e-02 9.5855587827496265e-03 0.0000000000000000e+00 
3.3343235449294684e-02 8.9954398613090632e-03 0.0000000000000000e+00 
3.3343240425787520e-02 8.9954170348374666e-03 0.0000000000000000e+00 
3.8845793778867106e-02 9.5855653654969095e-03 -2.8640011774335356e-09 
3.3343238444009535e-02 8.9954305078176981e-03 3.7494740011691333e-11 
3.8984193117689886e-02 -1.0867537910261241e-02 0.0000000000000000e+00 
3.8984196363944387e-02 -1.0867529117483130e-02 0.0000000000000000e+00 
3.3410420874716490e-02 -1.0197752032109191e-02 0.0000000000000000e+00 
3.3410431394399497e-02 -1.0197735381508345e-02 0.0000000000000000e+00 
3.8984204237480127e-02 -1.0867541774195230e-02 -3.4510410520960844e-09 
3.3410420762725213e-02 -1.0197743511576821e-02 -1.8966329613657404e-09 
5.0949993412230138e-02 1.0879448747540339e-02 0.0000000000000000e+00 
5.0949962520217829e-02 1.0879465698708126e-02 0.0000000000000000e+00 
4.4681995262145877e-02 1.0230440799385766e-02 0.0000000000000000e+00 
4.4681965229185078e-02 1.0230432009691863e-02 0.0000000000000000e+00 
5.0949975132793937e-02 1.0879456645443316e-02 -4.8007823627947449e-09 
4.4681973603384884e-02 1.0230439305786748e-02 -1.4680192013843494e-09 
5.0998447547689160e-02 -1.2213107281498131e-02 0.0000000000000000e+00 
5.0998429682303406e-02 -1.2213113797538987e-02 0.0000000000000000e+00 
4.4815383613150919e-02 -1.1527934076769893e-02 0.0000000000000000e+00 
4.4815375110120889e-02 -1.1527923392777745e-02 0.0000000000000000e+00 
5.0998441148459361e-02 -1.2213110758193826e-02 -9.0075510335822744e-10 
4.4815382276737148e-02 -1.1527926376524451e-02 5.6635320886105951e-10 
6.4506287226631237e-02 1.2035150169751409e-02 0.0000000000000000e+00 
6.4506298277173135e-02 1.2035149927015503e-02 0.0000000000000000e+00 
5.7594595018646381e-02 1.1465726453231054e-02 0.0000000000000000e+00 
5.7594597345928630e-02 1.1465736547460043e-02 0.0000000000000000e+00 
6.4506288040590942e-02 1.2035153440831295e-02 -1.9469202839915738e-09 
5.7594592971220222e-02 1.1465733647605454e-02 -1.9501603563135105e-09 
6.4615530714521252e-02 -1.3514599270460059e-02 0.0000000000000000e+00 
6.4615546347670819e-02 -1.3514611447231522e-02 0.0000000000000000e+00 
5.7620227146267064e-02 -1.2886184864830490e-02 0.0000000000000000e+00 
5.7620217434355248e-02 -1.2886196333581169e-02 0.0000000000000000e+00 
6.4615542274186699e-02 -1.3514613831171307e-02 -3.2192589293712868e-09 
5.7620215272873379e-02 -1.2886191338585855e-02 1.6628768107770030e-09 
7.9460560665827518e-02 1.3099704884165167e-02 0.0000000000000000e+00 
7.9460565256070481e-02 1.3099684938896468e-02 0.0000000000000000e+00 
7.1784079203389639e-02 1.2603716039404730e-02 0.0000000000000000e+00 
7.1784095864207781e-02 1.2603702739018233e-02 0.0000000000000000e+00 
7.9460555872968103e-02 1.3099690172630057e-02 -1.4131303694004974e-10 
7.1784090782096827e-02 1.2603711237791106e-02 1.0568690242123274e-09 
7.9486483881292813e-02 -1.4624865082686955e-02 0.0000000000000000e+00 
7.9486501985143593e-02 -1.4624851492455333e-02 0.0000000000000000e+00 
7.1911392089871670e-02 -1.4086894037487144e-02 0.0000000000000000e+00 
7.1911414878018776e-02 -1.4086887073013091e-02 0.0000000000000000e+00 
7.9486497432208383e-02 -1.4624862061634034e-02 -3.4385511751285933e-09 
7.1911407280207368e-02 -1.4086890497057851e-02 -1.3907962193245372e-10 
9.5508941694785632e-02 1.3809189971838561e-02 0.0000000000000000e+00 
9.5508923760068726e-02 1.3809177959578103e-02 0.0000000000000000e+00 
8.7403351909960167e-02 1.3482219286494838e-02 0.0000000000000000e+00 
8.7403344519634385e-02 1.3482198033354539e-02 0.0000000000000000e+00 
9.5508928434505244e-02 1.3809189764932551e-02 -3.2064222434747887e-09 
8.7403334582426134e-02 1.3482208978394375e-02 -4.6370445621445526e-11 
9.5552351130994126e-02 -1.5531709352076081e-02 0.0000000000000000e+00 
9.5552341736434621e-02 -1.5531707739569540e-02 0.0000000000000000e+00 
8.7368458875564242e-02 -1.5120452326493467e-02 0.0000000000000000e+00 
8.7368449374726292e-02 -1.5120435678294408e-02 0.0000000000000000e+00 
9.5552344269659320e-02 -1.5531717785894298e-02 -2.8299994737841336e-09 
8.7368449361902967e-02 -1.5120444223345887e-02 3.4019339603287320e-10 
1.1237806574710121e-01 1.4307520730950651e-02 0.0000000000000000e+00 
1.1237805519349786e-01 1.4307521816067703e-02 0.0000000000000000e+00 
1.0381871541396982e-01 1.4104465325039124e-02 0.0000000000000000e+00 
1.0381870535087429e-01 1.4104454618577600e-02 0.0000000000000000e+00 
1.1237805361539044e-01 1.4307521044426109e-02 -4.2798853646480865e-09 
1.0381871358395256e-01 1.4104463610367518e-02 -1.8944601780126374e-09 
1.1246042559874506e-01 -1.5958134703109510e-02 0.0000000000000000e+00 
1.1246042345411483e-01 -1.5958143708111421e-02 0.0000000000000000e+00 
1.0395746206607925e-01 -1.5806231988919079e-02 0.0000000000000000e+00 
1.0395745160418493e-01 -1.5806231176026881e-02 0.0000000000000000e+00 
1.1246042741492385e-01 -1.5958138611889841e-02 -5.7336100286130402e-09 
1.0395746061039079e-01 -1.5806233656218530e-02 -4.6291932199396101e-10 
1.2952599859306863e-01 1.4242674109854445e-02 0.0000000000000000e+00 
1.2952600251736029e-01 1.4242683006420833e-02 0.0000000000000000e+00 
1.2102087868243687e-01 1.4324368026793172e-02 0.0000000000000000e+00 
1.2102087647845150e-01 1.4324372990072616e-02 0.0000000000000000e+00 
1.2952599466404713e-01 1.4242682094392681e-02 -1.7144406997014965e-09 
1.2102087048380074e-01 1.4324375712170531e-02 -1.3743478829154942e-09 
1.2952558967921374e-01 -1.5983322617603265e-02 0.0000000000000000e+00 
1.2952561204841870e-01 -1.5983342972356009e-02 0.0000000000000000e+00 
1.2099414589572266e-01 -1.6002405550848635e-02 0.0000000000000000e+00 
1.2099414986448795e-01 -1.6002416869429048e-02 0.0000000000000000e+00 
1.2952560951040690e-01 -1.5983336464702829e-02 -4.8334948661565206e-09 
1.2099414172686146e-01 -1.6002409294758681e-02 -2.3400948961349327e-09 
1.4626475643157516e-01 1.4146289886545716e-02 0.0000000000000000e+00 
1.4626475890969598e-01 1.4146278962806458e-02 0.0000000000000000e+00 
1.3790921931080471e-01 1.4177154442765268e-02 0.0000000000000000e+00 
1.3790923918740458e-01 1.4177155021490431e-02 0.0000000000000000e+00 
1.4626475415537307e-01 1.4146281377504868e-02 -3.7644520179615090e-09 
1.3790922843280554e-01 1.4177155215569705e-02 -2.8554524501625950e-10 
1.4630415212603748e-01 -1.5906573246803536e-02 0.0000000000000000e+00 
1.4630417472628549e-01 -1.5906566540684546e-02 0.0000000000000000e+00 
1.3797257043605426e-01 -1.5932724084615352e-02 0.0000000000000000e+00 
1.3797260165905439e-01 -1.5932729502001714e-02 0.0000000000000000e+00 
1.4630416576031785e-01 -1.5906570558664894e-02 -4.7067968591035471e-09 
1.3797259055758243e-01 -1.5932721206956515e-02 -1.9665986710316070e-09 
1.6298877123506619e-01 1.4170144790997014e-02 0.0000000000000000e+00 
1.6298876803157736e-01 1.4170145131599782e-02 0.0000000000000000e+00 
1.5463157242223302e-01 1.4140916276297487e-02 0.0000000000000000e+00 
1.5463156641148293e-01 1.4140908039367458e-02 0.0000000000000000e+00 
1.6298877303618892e-01 1.4170144406960712e-02 -9.6484968014870666e-10 
1.5463156761565339e-01 1.4140910931620853e-02 -1.3408870605929235e-09 
1.6292518754155455e-01 -1.5946077616655431e-02 0.0000000000000000e+00 
1.6292518695497465e-01 -1.5946070936211594e-02 0.0000000000000000e+00 
1.5460250057022090e-01 -1.5918295557855077e-02 0.0000000000000000e+00 
1.5460250018682209e-01 -1.5918283527784162e-02 0.0000000000000000e+00 
1.6292518881572829e-01 -1.5946079984726403e-02 -2.9959409055710637e-09 
1.5460249614316066e-01 -1.5918289074939408e-02 -6.1572410892181322e-10 
1.7979869277948735e-01 1.4343315318626756e-02 0.0000000000000000e+00 
1.7979870225852068e-01 1.4343312683662547e-02 0.0000000000000000e+00 
1.7134040826698330e-01 1.4254665331850793e-02 0.0000000000000000e+00 
1.7134042413857636e-01 1.4254661370052494e-02 0.0000000000000000e+00 
1.7979869372246859e-01 1.4343317604138279e-02 -2.6881641795371707e-10 
1.7134041817069276e-01 1.4254664500379714e-02 1.8153483908409023e-09 
1.7982315090458123e-01 -1.5995996006832304e-02 0.0000000000000000e+00 
1.7982316620595301e-01 -1.5995984714765016e-02 0.0000000000000000e+00 
1.7132486035215810e-01 -1.5996697771185203e-02 0.0000000000000000e+00 
1.7132487023350484e-01 -1.5996688797086472e-02 0.0000000000000000e+00 
1.7982316727502787e-01 -1.5995992694468306e-02 -2.6448249110984017e-09 
1.7132487331902349e-01 -1.5996693687112606e-02 3.8294280145973368e-10 
1.9677099728958242e-01 1.4269789022076705e-02 0.0000000000000000e+00 
1.9677101164696001e-01 1.4269791744978076e-02 0.0000000000000000e+00 
1.8831572186935586e-01 1.4343516417407172e-02 0.0000000000000000e+00 
1.8831572962282483e-01 1.4343517731744311e-02 0.0000000000000000e+00 
1.9677100244305382e-01 1.4269801877177720e-02 5.6970934004489693e-09 
1.8831572304272642e-01 1.4343526406182000e-02 1.9449026258218777e-09 
1.9666457307083984e-01 -1.5787462775030348e-02 0.0000000000000000e+00 
1.9666458854729119e-01 -1.5787470207802225e-02 0.0000000000000000e+00 
1.8829465995173819e-01 -1.5899944630273596e-02 0.0000000000000000e+00 
1.8829467122272114e-01 -1.5899938753984107e-02 0.0000000000000000e+00 
1.9666457654870706e-01 -1.5787474987956584e-02 -4.9193225996918292e-09 
1.8829466473020562e-01 -1.5899942624276405e-02 -1.1757951063519283e-09 
2.1333806456923493e-01 1.4055184462770046e-02 0.0000000000000000e+00 
2.1333808151241876e-01 1.4055172260530435e-02 0.0000000000000000e+00 
2.0511490454381226e-01 1.4157664803364320e-02 0.0000000000000000e+00 
2.0511492861178321e-01 1.4157666825774001e-02 0.0000000000000000e+00 
2.1333808331255841e-01 1.4055170520636658e-02 7.8432282593174835e-09 
2.0511492806706916e-01 1.4157673848747165e-02 7.4321566046072573e-09 
2.1329030460307394e-01 -1.5625786805474301e-02 0.0000000000000000e+00 
2.1329032109732071e-01 -1.5625785001271174e-02 0.0000000000000000e+00 
2.0500048096106588e-01 -1.5694581279307118e-02 0.0000000000000000e+00 
2.0500050448267051e-01 -1.5694582679729781e-02 0.0000000000000000e+00 
2.1329032395204545e-01 -1.5625796050889467e-02 -6.1010985221187272e-09 
2.0500049625620981e-01 -1.5694593474098094e-02 -5.7209702737963162e-09 
2.2969158405937762e-01 1.4006320688000173e-02 0.0000000000000000e+00 
2.2971450536201143e-01 4.1600662735698651e-03 0.0000000000000000e+00 
2.2969157775148519e-01 1.4006298107474252e-02 0.0000000000000000e+00 
2.2971450951636185e-01 4.1600686556217716e-03 0.0000000000000000e+00 
2.2150499633771203e-01 1.4013672828670278e-02 0.0000000000000000e+00 
2.2969748587412947e-01 9.0834512742353837e-03 0.0000000000000000e+00 
2.2150501027130054e-01 1.4013660841517242e-02 0.0000000000000000e+00 
2.2969748487271513e-01 9.0834438772892882e-03 0.0000000000000000e+00 
2.2969156678556260e-01 1.4006303154842879e-02 4.6547408206523294e-09 
2.2971448993717045e-01 4.1600584433971370e-03 9.2510424820872338e-10 
2.2150498691380599e-01 1.4013651498546349e-02 5.3787864099353237e-09 
2.2969746546890310e-01 9.0834350292493121e-03 2.2160970902696260e-09 
2.2973871089563758e-01 -5.6738122883174570e-03 0.0000000000000000e+00 
2.2973870663711921e-01 -5.6738130642223512e-03 0.0000000000000000e+00 
2.2972960204466994e-01 -7.5294318493084392e-04 0.0000000000000000e+00 
2.2972960491156641e-01 -7.5294523043209006e-04 0.0000000000000000e+00 
2.2973871293590076e-01 -5.6738129665745542e-03 -3.2996725232316994e-10 
2.2972959544671750e-01 -7.5294311438745725e-04 -9.4323539633125207e-10 
2.2973885039529462e-01 -1.5557136012166271e-02 0.0000000000000000e+00 
2.2973883989697569e-01 -1.5557116424535925e-02 0.0000000000000000e+00 
2.2151966001592627e-01 -1.5577276832543018e-02 0.0000000000000000e+00 
2.2974059299408386e-01 -1.0617739352602464e-02 0.0000000000000000e+00 
2.2151966421720959e-01 -1.5577266657891331e-02 0.0000000000000000e+00 
2.2974058380737569e-01 -1.0617739191582185e-02 0.0000000000000000e+00 
2.2973886326552750e-01 -1.5557140490175897e-02 -3.3111316809237787e-09 
2.2151967688210833e-01 -1.5577278872757009e-02 -3.4298305957772907e-09 
2.2974060554341733e-01 -1.0617744352397580e-02 -4.3590759374312947e-09 

VECTORS Stress float
1.4282048374696595e+02 -4.3578097368777051e+00 1.7369814604443695e-12 
1.4388864224429693e+02 -6.2765969382505915e+00 2.5041808130307612e-12 
1.4282048374696595e+02 -4.3578097368777051e+00 1.7369814604443695e-12 
1.4388864224429693e+02 -6.2765969382505915e+00 2.5041808130307612e-12 
1.4370677143154583e+02 -4.4385161854337198e+00 2.0013141722277749e-12 
1.4370677143154583e+02 -4.4385161854337198e+00 2.0013141722277749e-12 
1.4282048374696595e+02 -4.3578097368777051e+00 1.7369814604443695e-12 
1.4388864224429693e+02 -6.2765969382505915e+00 2.5041808130307612e-12 
1.4370677143154583e+02 -4.4385161854337198e+00 2.0013141722277749e-12 
-1.2613887858459883e+01 9.6447323717459632e-01 -3.7538696676423757e-14 
-1.4917216135987559e+01 6.9982297099053881e-01 -3.2127328249852572e-13 
-1.2613887858459883e+01 9.6447323717459632e-01 -3.7538696676423757e-14 
-1.4917216135987559e+01 6.9982297099053881e-01 -3.2127328249852572e-13 
-1.4385820736472418e+01 5.6279673319887991e-01 -1.1986526131355932e-13 
-1.4385820736472418e+01 5.6279673319887991e-01 -1.1986526131355932e-13 
-1.2613887858459883e+01 9.6447323717459632e-01 -3.7538696676423757e-14 
-1.4917216135987559e+01 6.9982297099053881e-01 -3.2127328249852572e-13 
-1.4385820736472418e+01 5.6279673319887991e-01 -1.1986526131355932e-13 
1.4368522137813940e+02 -1.1858889815616607e+01 2.7167774810600478e-12 
1.4368522137813940e+02 -1.1858889815616607e+01 2.7167774810600478e-12 
1.4380399883543632e+02 -9.0522500647619779e+00 2.9576950565370478e-12 
1.4380399883543632e+02 -9.0522500647619779e+00 2.9576950565370478e-12 
1.4368522137813940e+02 -1.1858889815616607e+01 2.7167774810600478e-12 
1.4380399883543632e+02 -9.0522500647619779e+00 2.9576950565370478e-12 
-1.4725858946077835e+01 1.3274789781445975e+00 -7.5088077170234692e-13 
-1.4725858946077835e+01 1.3274789781445975e+00 -7.5088077170234692e-13 
-1.4855380656818625e+01 1.0319228141562746e+00 -6.0246100372705169e-13 
-1.4855380656818625e+01 1.0319228141562746e+00 -6.0246100372705169e-13 
-1.4725858946077835e+01 1.3274789781445975e+00 -7.5088077170234692e-13 
-1.4855380656818625e+01 1.0319228141562746e+00 -6.0246100372705169e-13 
1.4333119308366332e+02 -1.6861291797827221e+01 3.4344717699509431e-13 
1.4333119308366332e+02 -1.6861291797827221e+01 3.4344717699509431e-13 
1.4351217657603047e+02 -1.4417625328399879e+01 1.6226302443831541e-12 
1.4351217657603047e+02 -1.4417625328399879e+01 1.6226302443831541e-12 
1.4333119308366332e+02 -1.6861291797827221e+01 3.4344717699509431e-13 
1.4351217657603047e+02 -1.4417625328399879e+01 1.6226302443831541e-12 
-1.4634045843151625e+01 1.8759685088990068e+00 -3.8926468135185628e-13 
-1.4634045843151625e+01 1.8759685088990068e+00 -3.8926468135185628e-13 
-1.4649413651652509e+01 1.6138270705879449e+00 -6.5247679476290692e-13 
-1.4649413651652509e+01 1.6138270705879449e+00 -6.5247679476290692e-13 
-1.4634045843151625e+01 1.8759685088990068e+00 -3.8926468135185628e-13 
-1.4649413651652509e+01 1.6138270705879449e+00 -6.5247679476290692e-13 
1.4227118608633083e+02 -2.1373852063702373e+01 -1.8390998922109289e-12 
1.4227118608633083e+02 -2.1373852063702373e+01 -1.8390998922109289e-12 
1.4282914283434829e+02 -1.9184957880623756e+01 -8.5536162710788019e-13 
1.4282914283434829e+02 -1.9184957880623756e+01 -8.5536162710788019e-13 
1.4227118608633083e+02 -2.1373852063702373e+01 -1.8390998922109289e-12 
1.4282914283434829e+02 -1.9184957880623756e+01 -8.5536162710788019e-13 
-1.4138916666207308e+01 2.2756980757949918e+00 9.8328664415533084e-13 
-1.4138916666207308e+01 2.2756980757949918e+00 9.8328664415533084e-13 
-1.4377385858562718e+01 2.0697175583647436e+00 2.5281713100744694e-13 
-1.4377385858562718e+01 2.0697175583647436e+00 2.5281713100744694e-13 
-1.4138916666207308e+01 2.2756980757949918e+00 9.8328664415533084e-13 
-1.4377385858562718e+01 2.0697175583647436e+00 2.5281713100744694e-13 
1.4053764584207460e+02 -2.4753568482480944e+01 -2.0187994585300286e-12 
1.4053764584207460e+02 -2.4753568482480944e+01 -2.0187994585300286e-12 
1.4149017234712269e+02 -2.3203486674556075e+01 -2.2123710848327065e-12 
1.4149017234712269e+02 -2.3203486674556075e+01 -2.2123710848327065e-12 
1.4053764584207460e+02 -2.4753568482480944e+01 -2.0187994585300286e-12 
1.4149017234712269e+02 -2.3203486674556075e+01 -2.2123710848327065e-12 
-1.3272422921908742e+01 2.5205970505144251e+00 1.2278253150924662e-12 
-1.3272422921908742e+01 2.5205970505144251e+00 1.2278253150924662e-12 
-1.3748467436313433e+01 2.4146776711960456e+00 1.2995250302182796e-12 
-1.3748467436313433e+01 2.4146776711960456e+00 1.2995250302182796e-12 
-1.3272422921908742e+01 2.5205970505144251e+00 1.2278253150924662e-12 
-1.3748467436313433e+01 2.4146776711960456e+00 1.2995250302182796e-12 
1.3800499439515417e+02 -2.7620090942569504e+01 5.3269150377579827e-14 
1.3800499439515417e+02 -2.7620090942569504e+01 5.3269150377579827e-14 
1.3944567196362493e+02 -2.6220226928424836e+01 -1.3201169636143392e-12 
1.3944567196362493e+02 -2.6220226928424836e+01 -1.3201169636143392e-12 
1.3800499439515417e+02 -2.7620090942569504e+01 5.3269150377579827e-14 
1.3944567196362493e+02 -2.6220226928424836e+01 -1.3201169636143392e-12 
-1.2063150722968430e+01 2.6076066022047826e+00 1.0491610417030466e-13 
-1.2063150722968430e+01 2.6076066022047826e+00 1.0491610417030466e-13 
-1.2771679382197476e+01 2.6146524954421011e+00 8.8299875346549444e-13 
-1.2771679382197476e+01 2.6146524954421011e+00 8.8299875346549444e-13 
-1.2063150722968430e+01 2.6076066022047826e+00 1.0491610417030466e-13 
-1.2771679382197476e+01 2.6146524954421011e+00 8.8299875346549444e-13 
1.3459351597681953e+02 -3.0240762766931880e+01 1.7382839615090534e-12 
1.3459351597681953e+02 -3.0240762766931880e+01 1.7382839615090534e-12 
1.3646734792611812e+02 -2.9006604316964399e+01 1.3527134428366431e-12 
1.3646734792611812e+02 -2.9006604316964399e+01 1.3527134428366431e-12 
1.3459351597681953e+02 -3.0240762766931880e+01 1.7382839615090534e-12 
1.3646734792611812e+02 -2.9006604316964399e+01 1.3527134428366431e-12 
-1.0582129340364133e+01 2.5762584019852284e+00 -7.8238572813455834e-13 
-1.0582129340364133e+01 2.5762584019852284e+00 -7.8238572813455834e-13 
-1.1405198570102868e+01 2.6256864682795822e+00 -6.3439335863437619e-13 
-1.1405198570102868e+01 2.6256864682795822e+00 -6.3439335863437619e-13 
-1.0582129340364133e+01 2.5762584019852284e+00 -7.8238572813455834e-13 
-1.1405198570102868e+01 2.6256864682795822e+00 -6.3439335863437619e-13 
1.3031956540320144e+02 -3.2558142365236677e+01 8.8492986426577844e-13 
1.3031956540320144e+02 -3.2558142365236677e+01 8.8492986426577844e-13 
1.3255849566220684e+02 -3.1424323577815471e+01 1.5262897192143399e-12 
1.3255849566220684e+02 -3.1424323577815471e+01 1.5262897192143399e-12 
1.3031956540320144e+02 -3.2558142365236677e+01 8.8492986426577844e-13 
1.3255849566220684e+02 -3.1424323577815471e+01 1.5262897192143399e-12 
-8.8481124787235217e+00 2.4310609550478830e+00 -2.8759327137021582e-13 
-8.8481124787235217e+00 2.4310609550478830e+00 -2.8759327137021582e-13 
-9.7492627139405954e+00 2.5364411151541617e+00 -6.1931905789823037e-13 
-9.7492627139405954e+00 2.5364411151541617e+00 -6.1931905789823037e-13 
-8.8481124787235217e+00 2.4310609550478830e+00 -2.8759327137021582e-13 
-9.7492627139405954e+00 2.5364411151541617e+00 -6.1931905789823037e-13 
1.2535086024608859e+02 -3.4462713293139814e+01 -6.6484273873154449e-13 
1.2535086024608859e+02 -3.4462713293139814e+01 -6.6484273873154449e-13 
1.2784001943738883e+02 -3.3589706121562017e+01 -5.1223153222287790e-14 
1.2784001943738883e+02 -3.3589706121562017e+01 -5.1223153222287790e-14 
1.2535086024608859e+02 -3.4462713293139814e+01 -6.6484273873154449e-13 
1.2784001943738883e+02 -3.3589706121562017e+01 -5.1223153222287790e-14 
-6.7564127260495184e+00 2.0545367637791969e+00 6.9698632774006096e-13 
-6.7564127260495184e+00 2.0545367637791969e+00 6.9698632774006096e-13 
-7.8042233656556732e+00 2.2270342733487496e+00 2.1425319749040314e-13 
-7.8042233656556732e+00 2.2270342733487496e+00 2.1425319749040314e-13 
-6.7564127260495184e+00 2.0545367637791969e+00 6.9698632774006096e-13 
-7.8042233656556732e+00 2.2270342733487496e+00 2.1425319749040314e-13 
1.2023131814221563e+02 -3.5011624178741727e+01 4.4990297938553918e-13 
1.2023131814221563e+02 -3.5011624178741727e+01 4.4990297938553918e-13 
1.2278395080824706e+02 -3.4825914826976998e+01 -2.5943751953827357e-13 
1.2278395080824706e+02 -3.4825914826976998e+01 -2.5943751953827357e-13 
1.2023131814221563e+02 -3.5011624178741727e+01 4.4990297938553918e-13 
1.2278395080824706e+02 -3.4825914826976998e+01 -2.5943751953827357e-13 
-4.2832873462546104e+00 1.4295350461719067e+00 1.0311000847540859e-12 
-4.2832873462546104e+00 1.4295350461719067e+00 1.0311000847540859e-12 
-5.5356568837542568e+00 1.7204118704420921e+00 9.1760338035828090e-13 
-5.5356568837542568e+00 1.7204118704420921e+00 9.1760338035828090e-13 
-4.2832873462546104e+00 1.4295350461719067e+00 1.0311000847540859e-12 
-5.5356568837542568e+00 1.7204118704420921e+00 9.1760338035828090e-13 
1.1485761635572993e+02 -3.4909483706160756e+01 1.0168584089311039e-12 
1.1485761635572993e+02 -3.4909483706160756e+01 1.0168584089311039e-12 
1.1757709529150205e+02 -3.5043601322796235e+01 8.8958325833953133e-13 
1.1757709529150205e+02 -3.5043601322796235e+01 8.8958325833953133e-13 
1.1485761635572993e+02 -3.4909483706160756e+01 1.0168584089311039e-12 
1.1757709529150205e+02 -3.5043601322796235e+01 8.8958325833953133e-13 
-1.4432570611909341e+00 5.7041235203507767e-01 8.3824931395135866e-13 
-1.4432570611909341e+00 5.7041235203507767e-01 8.3824931395135866e-13 
-2.9096496570365389e+00 1.0224174578582961e+00 1.0075683812723565e-12 
-2.9096496570365389e+00 1.0224174578582961e+00 1.0075683812723565e-12 
-1.4432570611909341e+00 5.7041235203507767e-01 8.3824931395135866e-13 
-2.9096496570365389e+00 1.0224174578582961e+00 1.0075683812723565e-12 
1.0962100343770734e+02 -3.3327062166306291e+01 1.0470116349345443e-12 
1.0962100343770734e+02 -3.3327062166306291e+01 1.0470116349345443e-12 
1.1220476622987647e+02 -3.4428552765966629e+01 1.0377150664114327e-12 
1.1220476622987647e+02 -3.4428552765966629e+01 1.0377150664114327e-12 
1.0962100343770734e+02 -3.3327062166306291e+01 1.0470116349345443e-12 
1.1220476622987647e+02 -3.4428552765966629e+01 1.0377150664114327e-12 
1.5970524799767816e+00 -3.4384325155406259e-01 2.3246092491343697e-13 
1.5970524799767816e+00 -3.4384325155406259e-01 2.3246092491343697e-13 
5.0669518048209738e-02 1.6049021221249404e-01 5.6729236066681736e-13 
5.0669518048209738e-02 1.6049021221249404e-01 5.6729236066681736e-13 
1.5970524799767816e+00 -3.4384325155406259e-01 2.3246092491343697e-13 
5.0669518048209738e-02 1.6049021221249404e-01 5.6729236066681736e-13 
1.0381405909440116e+02 -3.0886382396988267e+01 1.1768242676774796e-12 
1.0381405909440116e+02 -3.0886382396988267e+01 1.1768242676774796e-12 
1.0691557204028729e+02 -3.2081103517033114e+01 1.0807320449592764e-12 
1.0691557204028729e+02 -3.2081103517033114e+01 1.0807320449592764e-12 
1.0381405909440116e+02 -3.0886382396988267e+01 1.1768242676774796e-12 
1.0691557204028729e+02 -3.2081103517033114e+01 1.0807320449592764e-12 
4.4714242956505643e+00 -1.1434235835740765e+00 -2.9238195926708204e-13 
4.4714242956505643e+00 -1.1434235835740765e+00 -2.9238195926708204e-13 
3.0724909327022090e+00 -7.4034753487615035e-01 -9.5483876107145433e-14 
3.0724909327022090e+00 -7.4034753487615035e-01 -9.5483876107145433e-14 
4.4714242956505643e+00 -1.1434235835740765e+00 -2.9238195926708204e-13 
3.0724909327022090e+00 -7.4034753487615035e-01 -9.5483876107145433e-14 
9.6381053614742626e+01 -2.8801817930855520e+01 8.9022903195656813e-13 
9.6381053614742626e+01 -2.8801817930855520e+01 8.9022903195656813e-13 
1.0031773630413218e+02 -2.9776425189436395e+01 1.2280247093516150e-12 
1.0031773630413218e+02 -2.9776425189436395e+01 1.2280247093516150e-12 
9.6381053614742626e+01 -2.8801817930855520e+01 8.9022903195656813e-13 
1.0031773630413218e+02 -2.9776425189436395e+01 1.2280247093516150e-12 
6.8952519959478309e+00 -1.9259840369691688e+00 -2.9723769685076825e-13 
6.8952519959478309e+00 -1.9259840369691688e+00 -2.9723769685076825e-13 
5.7362134414956927e+00 -1.5064184523669724e+00 -3.9384967335607042e-13 
5.7362134414956927e+00 -1.5064184523669724e+00 -3.9384967335607042e-13 
6.8952519959478309e+00 -1.9259840369691688e+00 -2.9723769685076825e-13 
5.7362134414956927e+00 -1.5064184523669724e+00 -3.9384967335607042e-13 
8.6968950321733388e+01 -2.6194774089614327e+01 -1.0905734230988031e-12 
8.6968950321733388e+01 -2.6194774089614327e+01 -1.0905734230988031e-12 
9.1933338426506168e+01 -2.7815312155488300e+01 3.1821182636496712e-14 
9.1933338426506168e+01 -2.7815312155488300e+01 3.1821182636496712e-14 
8.6968950321733388e+01 -2.6194774089614327e+01 -1.0905734230988031e-12 
9.1933338426506225e+01 -2.7815312155488101e+01 3.1821182636477325e-14 
8.8658837836181732e+00 -2.4805285275678557e+00 5.9772251949770387e-13 
8.8658837836181732e+00 -2.4805285275678557e+00 5.9772251949770387e-13 
7.9673927537667595e+00 -2.3725724673768127e+00 6.1483164421689666e-14 
7.9673927537667595e+00 -2.3725724673768127e+00 6.1483164421689666e-14 
8.8658837836181732e+00 -2.4805285275678557e+00 5.9772251949770387e-13 
7.9673927537667026e+00 -2.3725724673767559e+00 6.1483164421712284e-14 
7.5356669201860143e+01 -2.1073799626459618e+01 -3.9438290795139561e-12 
7.5356669201860143e+01 -2.1073799626459618e+01 -3.9438290795139561e-12 
8.1402959176775738e+01 -2.3107727327895702e+01 -2.5750344515864746e-12 
8.1402959176775738e+01 -2.3107727327895702e+01 -2.5750344515864746e-12 
7.5356669201860143e+01 -2.1073799626459618e+01 -3.9438290795139561e-12 
8.1402959176775738e+01 -2.3107727327895702e+01 -2.5750344515864746e-12 
1.0384384501508094e+01 -2.2925188808193866e+00 2.4632848936468805e-12 
1.0384384501508094e+01 -2.2925188808193866e+00 2.4632848936468805e-12 
9.5666958588472255e+00 -2.0981511068852683e+00 1.5159604757373396e-12 
9.5666958588472255e+00 -2.0981511068852683e+00 1.5159604757373396e-12 
1.0384384501508094e+01 -2.2925188808193866e+00 2.4632848936468805e-12 
9.5666958588472255e+00 -2.0981511068852683e+00 1.5159604757373396e-12 
6.2029038111471316e+01 -2.9226508880754608e+01 -3.8934707651054222e-12 
6.2029038111471316e+01 -2.9226508880754608e+01 -3.8934707651054222e-12 
6.9487186758285333e+01 -2.6010222207807630e+01 -4.3760775258595007e-12 
6.9487186758285333e+01 -2.6010222207807630e+01 -4.3760775258595007e-12 
6.2029038111471316e+01 -2.9226508880754608e+01 -3.8934707651054222e-12 
6.9487186758285318e+01 -2.6010222207807715e+01 -4.3760775258594958e-12 
1.3658539090603135e+01 -8.2551595115382241e+00 2.5303573564909269e-12 
1.3658539090603135e+01 -8.2551595115382241e+00 2.5303573564909269e-12 
1.2196864635013313e+01 -5.8131423010033103e+00 2.7879177053800207e-12 
1.2196864635013313e+01 -5.8131423010033103e+00 2.7879177053800207e-12 
1.3658539090603135e+01 -8.2551595115382241e+00 2.5303573564909269e-12 
1.2196864635013263e+01 -5.8131423010034382e+00 2.7879177053799997e-12 
2.9173707522516757e+01 5.4309757059444848e+01 -7.4225493808266515e-13 
1.4386681104027428e+01 5.5134140990452451e+01 1.0977181616448169e-13 
2.9173707522516757e+01 5.4309757059444848e+01 -7.4225493808266515e-13 
1.4386681104027428e+01 5.5134140990452451e+01 1.0977181616448169e-13 
4.8542791471637862e+01 -5.3728706660996295e+00 -2.6455569025242847e-12 
1.8676474029729032e+01 6.2831791249182956e+01 3.3714703762302730e-19 
4.8542791471637862e+01 -5.3728706660996295e+00 -2.6455569025242847e-12 
1.8676474029729032e+01 6.2831791249182956e+01 3.3714703762302730e-19 
2.9173707522516757e+01 5.4309757059444848e+01 -7.4225493808266515e-13 
1.4386681104027428e+01 5.5134140990452451e+01 1.0977181616448169e-13 
4.8542791471637862e+01 -5.3728706660996295e+00 -2.6455569025242847e-12 
1.8676474029729032e+01 6.2831791249182956e+01 3.3714703762302730e-19 
1.0812299104291526e+01 3.3488434604490919e+01 -1.0119301401371105e-13 
1.0812299104291526e+01 3.3488434604490919e+01 -1.0119301401371105e-13 
1.2562072419082991e+01 4.2752130204536670e+01 -2.6088748932172462e-17 
1.2562072419082991e+01 4.2752130204536670e+01 -2.6088748932172462e-17 
1.0812299104291526e+01 3.3488434604490919e+01 -1.0119301401371105e-13 
1.2562072419082991e+01 4.2752130204536670e+01 -2.6088748932172462e-17 
1.5960437355311115e+00 2.2578260361400865e+01 6.5549483628718483e-13 
1.5960437355311115e+00 2.2578260361400865e+01 6.5549483628718483e-13 
1.1126479049394661e+01 -3.2857054314850132e-01 1.8067578521262155e-12 
7.7480566744673354e+00 2.6635521280801356e+01 1.9608444221488773e-16 
1.1126479049394661e+01 -3.2857054314850132e-01 1.8067578521262155e-12 
7.7480566744673354e+00 2.6635521280801356e+01 1.9608444221488773e-16 
1.5960437355311115e+00 2.2578260361400865e+01 6.5549483628718483e-13 
1.1126479049394661e+01 -3.2857054314850132e-01 1.8067578521262155e-12 
7.7480566744673780e+00 2.6635521280801328e+01 1.9608444221973450e-16 

