# vtk DataFile Version 2.0

ASCII

DATASET UNSTRUCTURED_GRID

POINTS 237 float 

-5.0000000000000003e-02  0.0000000000000000e+00  0.0000000000000000e+00
-5.0000000000000003e-02  5.5555555555555552e-02  0.0000000000000000e+00
-5.0000000000000003e-02  0.0000000000000000e+00  2.9999999999999999e-01
-5.0000000000000003e-02  5.5555555555555552e-02  2.9999999999999999e-01
-5.0000000000000003e-02  2.7777777777777776e-02  0.0000000000000000e+00
-5.0000000000000003e-02  2.7777777777777776e-02  2.9999999999999999e-01
-5.0000000000000003e-02  0.0000000000000000e+00  1.4999999999999999e-01
-5.0000000000000003e-02  5.5555555555555552e-02  1.4999999999999999e-01
-5.0000000000000003e-02  2.7777777777777776e-02  1.4999999999999999e-01
5.0000000000000003e-02  0.0000000000000000e+00  0.0000000000000000e+00
5.0000000000000003e-02  5.5555555555555552e-02  0.0000000000000000e+00
5.0000000000000003e-02  0.0000000000000000e+00  2.9999999999999999e-01
5.0000000000000003e-02  5.5555555555555552e-02  2.9999999999999999e-01
5.0000000000000003e-02  2.7777777777777776e-02  0.0000000000000000e+00
5.0000000000000003e-02  2.7777777777777776e-02  2.9999999999999999e-01
5.0000000000000003e-02  0.0000000000000000e+00  1.4999999999999999e-01
5.0000000000000003e-02  5.5555555555555552e-02  1.4999999999999999e-01
5.0000000000000003e-02  2.7777777777777776e-02  1.4999999999999999e-01
-5.0000000000000003e-02  1.1111111111111110e-01  0.0000000000000000e+00
-5.0000000000000003e-02  1.1111111111111110e-01  2.9999999999999999e-01
-5.0000000000000003e-02  8.3333333333333329e-02  0.0000000000000000e+00
-5.0000000000000003e-02  8.3333333333333329e-02  2.9999999999999999e-01
-5.0000000000000003e-02  1.1111111111111110e-01  1.4999999999999999e-01
-5.0000000000000003e-02  8.3333333333333329e-02  1.4999999999999999e-01
5.0000000000000003e-02  1.1111111111111110e-01  0.0000000000000000e+00
5.0000000000000003e-02  1.1111111111111110e-01  2.9999999999999999e-01
5.0000000000000003e-02  8.3333333333333329e-02  0.0000000000000000e+00
5.0000000000000003e-02  8.3333333333333329e-02  2.9999999999999999e-01
5.0000000000000003e-02  1.1111111111111110e-01  1.4999999999999999e-01
5.0000000000000003e-02  8.3333333333333329e-02  1.4999999999999999e-01
-5.0000000000000003e-02  1.6666666666666666e-01  0.0000000000000000e+00
-5.0000000000000003e-02  1.6666666666666666e-01  2.9999999999999999e-01
-5.0000000000000003e-02  1.3888888888888890e-01  0.0000000000000000e+00
-5.0000000000000003e-02  1.3888888888888890e-01  2.9999999999999999e-01
-5.0000000000000003e-02  1.6666666666666666e-01  1.4999999999999999e-01
-5.0000000000000003e-02  1.3888888888888890e-01  1.4999999999999999e-01
5.0000000000000003e-02  1.6666666666666666e-01  0.0000000000000000e+00
5.0000000000000003e-02  1.6666666666666666e-01  2.9999999999999999e-01
5.0000000000000003e-02  1.3888888888888890e-01  0.0000000000000000e+00
5.0000000000000003e-02  1.3888888888888890e-01  2.9999999999999999e-01
5.0000000000000003e-02  1.6666666666666666e-01  1.4999999999999999e-01
5.0000000000000003e-02  1.3888888888888890e-01  1.4999999999999999e-01
-5.0000000000000003e-02  2.2222222222222221e-01  0.0000000000000000e+00
-5.0000000000000003e-02  2.2222222222222221e-01  2.9999999999999999e-01
-5.0000000000000003e-02  1.9444444444444442e-01  0.0000000000000000e+00
-5.0000000000000003e-02  1.9444444444444442e-01  2.9999999999999999e-01
-5.0000000000000003e-02  2.2222222222222221e-01  1.4999999999999999e-01
-5.0000000000000003e-02  1.9444444444444442e-01  1.4999999999999999e-01
5.0000000000000003e-02  2.2222222222222221e-01  0.0000000000000000e+00
5.0000000000000003e-02  2.2222222222222221e-01  2.9999999999999999e-01
5.0000000000000003e-02  1.9444444444444442e-01  0.0000000000000000e+00
5.0000000000000003e-02  1.9444444444444442e-01  2.9999999999999999e-01
5.0000000000000003e-02  2.2222222222222221e-01  1.4999999999999999e-01
5.0000000000000003e-02  1.9444444444444442e-01  1.4999999999999999e-01
-5.0000000000000003e-02  2.7777777777777779e-01  0.0000000000000000e+00
-5.0000000000000003e-02  2.7777777777777779e-01  2.9999999999999999e-01
-5.0000000000000003e-02  2.5000000000000000e-01  0.0000000000000000e+00
-5.0000000000000003e-02  2.5000000000000000e-01  2.9999999999999999e-01
-5.0000000000000003e-02  2.7777777777777779e-01  1.4999999999999999e-01
-5.0000000000000003e-02  2.5000000000000000e-01  1.4999999999999999e-01
5.0000000000000003e-02  2.7777777777777779e-01  0.0000000000000000e+00
5.0000000000000003e-02  2.7777777777777779e-01  2.9999999999999999e-01
5.0000000000000003e-02  2.5000000000000000e-01  0.0000000000000000e+00
5.0000000000000003e-02  2.5000000000000000e-01  2.9999999999999999e-01
5.0000000000000003e-02  2.7777777777777779e-01  1.4999999999999999e-01
5.0000000000000003e-02  2.5000000000000000e-01  1.4999999999999999e-01
-5.0000000000000003e-02  3.3333333333333331e-01  0.0000000000000000e+00
-5.0000000000000003e-02  3.3333333333333331e-01  2.9999999999999999e-01
-5.0000000000000003e-02  3.0555555555555558e-01  0.0000000000000000e+00
-5.0000000000000003e-02  3.0555555555555558e-01  2.9999999999999999e-01
-5.0000000000000003e-02  3.3333333333333331e-01  1.4999999999999999e-01
-5.0000000000000003e-02  3.0555555555555558e-01  1.4999999999999999e-01
5.0000000000000003e-02  3.3333333333333331e-01  0.0000000000000000e+00
5.0000000000000003e-02  3.3333333333333331e-01  2.9999999999999999e-01
5.0000000000000003e-02  3.0555555555555558e-01  0.0000000000000000e+00
5.0000000000000003e-02  3.0555555555555558e-01  2.9999999999999999e-01
5.0000000000000003e-02  3.3333333333333331e-01  1.4999999999999999e-01
5.0000000000000003e-02  3.0555555555555558e-01  1.4999999999999999e-01
-5.0000000000000003e-02  3.8888888888888884e-01  0.0000000000000000e+00
-5.0000000000000003e-02  3.8888888888888884e-01  2.9999999999999999e-01
-5.0000000000000003e-02  3.6111111111111105e-01  0.0000000000000000e+00
-5.0000000000000003e-02  3.6111111111111105e-01  2.9999999999999999e-01
-5.0000000000000003e-02  3.8888888888888884e-01  1.4999999999999999e-01
-5.0000000000000003e-02  3.6111111111111105e-01  1.4999999999999999e-01
5.0000000000000003e-02  3.8888888888888884e-01  0.0000000000000000e+00
5.0000000000000003e-02  3.8888888888888884e-01  2.9999999999999999e-01
5.0000000000000003e-02  3.6111111111111105e-01  0.0000000000000000e+00
5.0000000000000003e-02  3.6111111111111105e-01  2.9999999999999999e-01
5.0000000000000003e-02  3.8888888888888884e-01  1.4999999999999999e-01
5.0000000000000003e-02  3.6111111111111105e-01  1.4999999999999999e-01
-5.0000000000000003e-02  4.4444444444444442e-01  0.0000000000000000e+00
-5.0000000000000003e-02  4.4444444444444442e-01  2.9999999999999999e-01
-5.0000000000000003e-02  4.1666666666666663e-01  0.0000000000000000e+00
-5.0000000000000003e-02  4.1666666666666663e-01  2.9999999999999999e-01
-5.0000000000000003e-02  4.4444444444444442e-01  1.4999999999999999e-01
-5.0000000000000003e-02  4.1666666666666663e-01  1.4999999999999999e-01
5.0000000000000003e-02  4.4444444444444442e-01  0.0000000000000000e+00
5.0000000000000003e-02  4.4444444444444442e-01  2.9999999999999999e-01
5.0000000000000003e-02  4.1666666666666663e-01  0.0000000000000000e+00
5.0000000000000003e-02  4.1666666666666663e-01  2.9999999999999999e-01
5.0000000000000003e-02  4.4444444444444442e-01  1.4999999999999999e-01
5.0000000000000003e-02  4.1666666666666663e-01  1.4999999999999999e-01
-5.0000000000000003e-02  5.0000000000000000e-01  0.0000000000000000e+00
-5.0000000000000003e-02  5.0000000000000000e-01  2.9999999999999999e-01
-5.0000000000000003e-02  4.7222222222222221e-01  0.0000000000000000e+00
-5.0000000000000003e-02  4.7222222222222221e-01  2.9999999999999999e-01
-5.0000000000000003e-02  5.0000000000000000e-01  1.4999999999999999e-01
-5.0000000000000003e-02  4.7222222222222221e-01  1.4999999999999999e-01
5.0000000000000003e-02  5.0000000000000000e-01  0.0000000000000000e+00
5.0000000000000003e-02  5.0000000000000000e-01  2.9999999999999999e-01
5.0000000000000003e-02  4.7222222222222221e-01  0.0000000000000000e+00
5.0000000000000003e-02  4.7222222222222221e-01  2.9999999999999999e-01
5.0000000000000003e-02  5.0000000000000000e-01  1.4999999999999999e-01
5.0000000000000003e-02  4.7222222222222221e-01  1.4999999999999999e-01
-5.0000000000000003e-02  5.5555555555555558e-01  0.0000000000000000e+00
-5.0000000000000003e-02  5.5555555555555558e-01  2.9999999999999999e-01
-5.0000000000000003e-02  5.2777777777777779e-01  0.0000000000000000e+00
-5.0000000000000003e-02  5.2777777777777779e-01  2.9999999999999999e-01
-5.0000000000000003e-02  5.5555555555555558e-01  1.4999999999999999e-01
-5.0000000000000003e-02  5.2777777777777779e-01  1.4999999999999999e-01
5.0000000000000003e-02  5.5555555555555558e-01  0.0000000000000000e+00
5.0000000000000003e-02  5.5555555555555558e-01  2.9999999999999999e-01
5.0000000000000003e-02  5.2777777777777779e-01  0.0000000000000000e+00
5.0000000000000003e-02  5.2777777777777779e-01  2.9999999999999999e-01
5.0000000000000003e-02  5.5555555555555558e-01  1.4999999999999999e-01
5.0000000000000003e-02  5.2777777777777779e-01  1.4999999999999999e-01
-5.0000000000000003e-02  6.1111111111111105e-01  0.0000000000000000e+00
-5.0000000000000003e-02  6.1111111111111105e-01  2.9999999999999999e-01
-5.0000000000000003e-02  5.8333333333333326e-01  0.0000000000000000e+00
-5.0000000000000003e-02  5.8333333333333326e-01  2.9999999999999999e-01
-5.0000000000000003e-02  6.1111111111111105e-01  1.4999999999999999e-01
-5.0000000000000003e-02  5.8333333333333326e-01  1.4999999999999999e-01
5.0000000000000003e-02  6.1111111111111105e-01  0.0000000000000000e+00
5.0000000000000003e-02  6.1111111111111105e-01  2.9999999999999999e-01
5.0000000000000003e-02  5.8333333333333326e-01  0.0000000000000000e+00
5.0000000000000003e-02  5.8333333333333326e-01  2.9999999999999999e-01
5.0000000000000003e-02  6.1111111111111105e-01  1.4999999999999999e-01
5.0000000000000003e-02  5.8333333333333326e-01  1.4999999999999999e-01
-5.0000000000000003e-02  6.6666666666666663e-01  0.0000000000000000e+00
-5.0000000000000003e-02  6.6666666666666663e-01  2.9999999999999999e-01
-5.0000000000000003e-02  6.3888888888888884e-01  0.0000000000000000e+00
-5.0000000000000003e-02  6.3888888888888884e-01  2.9999999999999999e-01
-5.0000000000000003e-02  6.6666666666666663e-01  1.4999999999999999e-01
-5.0000000000000003e-02  6.3888888888888884e-01  1.4999999999999999e-01
5.0000000000000003e-02  6.6666666666666663e-01  0.0000000000000000e+00
5.0000000000000003e-02  6.6666666666666663e-01  2.9999999999999999e-01
5.0000000000000003e-02  6.3888888888888884e-01  0.0000000000000000e+00
5.0000000000000003e-02  6.3888888888888884e-01  2.9999999999999999e-01
5.0000000000000003e-02  6.6666666666666663e-01  1.4999999999999999e-01
5.0000000000000003e-02  6.3888888888888884e-01  1.4999999999999999e-01
-5.0000000000000003e-02  7.2222222222222221e-01  0.0000000000000000e+00
-5.0000000000000003e-02  7.2222222222222221e-01  2.9999999999999999e-01
-5.0000000000000003e-02  6.9444444444444442e-01  0.0000000000000000e+00
-5.0000000000000003e-02  6.9444444444444442e-01  2.9999999999999999e-01
-5.0000000000000003e-02  7.2222222222222221e-01  1.4999999999999999e-01
-5.0000000000000003e-02  6.9444444444444442e-01  1.4999999999999999e-01
5.0000000000000003e-02  7.2222222222222221e-01  0.0000000000000000e+00
5.0000000000000003e-02  7.2222222222222221e-01  2.9999999999999999e-01
5.0000000000000003e-02  6.9444444444444442e-01  0.0000000000000000e+00
5.0000000000000003e-02  6.9444444444444442e-01  2.9999999999999999e-01
5.0000000000000003e-02  7.2222222222222221e-01  1.4999999999999999e-01
5.0000000000000003e-02  6.9444444444444442e-01  1.4999999999999999e-01
-5.0000000000000003e-02  7.7777777777777768e-01  0.0000000000000000e+00
-5.0000000000000003e-02  7.7777777777777768e-01  2.9999999999999999e-01
-5.0000000000000003e-02  7.5000000000000000e-01  0.0000000000000000e+00
-5.0000000000000003e-02  7.5000000000000000e-01  2.9999999999999999e-01
-5.0000000000000003e-02  7.7777777777777768e-01  1.4999999999999999e-01
-5.0000000000000003e-02  7.5000000000000000e-01  1.4999999999999999e-01
5.0000000000000003e-02  7.7777777777777768e-01  0.0000000000000000e+00
5.0000000000000003e-02  7.7777777777777768e-01  2.9999999999999999e-01
5.0000000000000003e-02  7.5000000000000000e-01  0.0000000000000000e+00
5.0000000000000003e-02  7.5000000000000000e-01  2.9999999999999999e-01
5.0000000000000003e-02  7.7777777777777768e-01  1.4999999999999999e-01
5.0000000000000003e-02  7.5000000000000000e-01  1.4999999999999999e-01
-5.0000000000000003e-02  8.3333333333333326e-01  0.0000000000000000e+00
-5.0000000000000003e-02  8.3333333333333326e-01  2.9999999999999999e-01
-5.0000000000000003e-02  8.0555555555555547e-01  0.0000000000000000e+00
-5.0000000000000003e-02  8.0555555555555547e-01  2.9999999999999999e-01
-5.0000000000000003e-02  8.3333333333333326e-01  1.4999999999999999e-01
-5.0000000000000003e-02  8.0555555555555536e-01  1.4999999999999999e-01
5.0000000000000003e-02  8.3333333333333326e-01  0.0000000000000000e+00
5.0000000000000003e-02  8.3333333333333326e-01  2.9999999999999999e-01
5.0000000000000003e-02  8.0555555555555547e-01  0.0000000000000000e+00
5.0000000000000003e-02  8.0555555555555547e-01  2.9999999999999999e-01
5.0000000000000003e-02  8.3333333333333326e-01  1.4999999999999999e-01
5.0000000000000003e-02  8.0555555555555536e-01  1.4999999999999999e-01
-5.0000000000000003e-02  8.8888888888888884e-01  0.0000000000000000e+00
-5.0000000000000003e-02  8.8888888888888884e-01  2.9999999999999999e-01
-5.0000000000000003e-02  8.6111111111111105e-01  0.0000000000000000e+00
-5.0000000000000003e-02  8.6111111111111105e-01  2.9999999999999999e-01
-5.0000000000000003e-02  8.8888888888888884e-01  1.4999999999999999e-01
-5.0000000000000003e-02  8.6111111111111105e-01  1.4999999999999999e-01
5.0000000000000003e-02  8.8888888888888884e-01  0.0000000000000000e+00
5.0000000000000003e-02  8.8888888888888884e-01  2.9999999999999999e-01
5.0000000000000003e-02  8.6111111111111105e-01  0.0000000000000000e+00
5.0000000000000003e-02  8.6111111111111105e-01  2.9999999999999999e-01
5.0000000000000003e-02  8.8888888888888884e-01  1.4999999999999999e-01
5.0000000000000003e-02  8.6111111111111105e-01  1.4999999999999999e-01
-5.0000000000000003e-02  9.4444444444444442e-01  0.0000000000000000e+00
-5.0000000000000003e-02  9.4444444444444442e-01  2.9999999999999999e-01
-5.0000000000000003e-02  9.1666666666666663e-01  0.0000000000000000e+00
-5.0000000000000003e-02  9.1666666666666663e-01  2.9999999999999999e-01
-5.0000000000000003e-02  9.4444444444444442e-01  1.4999999999999999e-01
-5.0000000000000003e-02  9.1666666666666674e-01  1.4999999999999999e-01
5.0000000000000003e-02  9.4444444444444442e-01  0.0000000000000000e+00
5.0000000000000003e-02  9.4444444444444442e-01  2.9999999999999999e-01
5.0000000000000003e-02  9.1666666666666663e-01  0.0000000000000000e+00
5.0000000000000003e-02  9.1666666666666663e-01  2.9999999999999999e-01
5.0000000000000003e-02  9.4444444444444442e-01  1.4999999999999999e-01
5.0000000000000003e-02  9.1666666666666674e-01  1.4999999999999999e-01
-5.0000000000000003e-02  1.0000000000000000e+00  0.0000000000000000e+00
-1.6666666666666670e-02  1.0000000000000000e+00  0.0000000000000000e+00
-5.0000000000000003e-02  1.0000000000000000e+00  2.9999999999999999e-01
-1.6666666666666670e-02  1.0000000000000000e+00  2.9999999999999999e-01
-5.0000000000000003e-02  9.7222222222222221e-01  0.0000000000000000e+00
-3.3333333333333340e-02  1.0000000000000000e+00  0.0000000000000000e+00
-5.0000000000000003e-02  9.7222222222222221e-01  2.9999999999999999e-01
-3.3333333333333340e-02  1.0000000000000000e+00  2.9999999999999999e-01
-5.0000000000000003e-02  1.0000000000000000e+00  1.4999999999999999e-01
-1.6666666666666670e-02  1.0000000000000000e+00  1.4999999999999999e-01
-5.0000000000000003e-02  9.7222222222222221e-01  1.4999999999999999e-01
-3.3333333333333340e-02  1.0000000000000000e+00  1.4999999999999999e-01
1.6666666666666663e-02  1.0000000000000000e+00  0.0000000000000000e+00
1.6666666666666663e-02  1.0000000000000000e+00  2.9999999999999999e-01
-3.4694469519536142e-18  1.0000000000000000e+00  0.0000000000000000e+00
-3.4694469519536142e-18  1.0000000000000000e+00  2.9999999999999999e-01
1.6666666666666663e-02  1.0000000000000000e+00  1.4999999999999999e-01
-3.4694469519536142e-18  1.0000000000000000e+00  1.4999999999999999e-01
5.0000000000000003e-02  1.0000000000000000e+00  0.0000000000000000e+00
5.0000000000000003e-02  1.0000000000000000e+00  2.9999999999999999e-01
5.0000000000000003e-02  9.7222222222222221e-01  0.0000000000000000e+00
3.3333333333333333e-02  1.0000000000000000e+00  0.0000000000000000e+00
5.0000000000000003e-02  9.7222222222222221e-01  2.9999999999999999e-01
3.3333333333333333e-02  1.0000000000000000e+00  2.9999999999999999e-01
5.0000000000000003e-02  1.0000000000000000e+00  1.4999999999999999e-01
5.0000000000000003e-02  9.7222222222222221e-01  1.4999999999999999e-01
3.3333333333333333e-02  1.0000000000000000e+00  1.4999999999999999e-01

CELLS 0 0


CELL_TYPES 0


POINT_DATA 237

VECTORS VertexNormals float

0.0000000000000000e+00 0.0000000000000000e+00 0.0000000000000000e+00 
0.0000000000000000e+00 0.0000000000000000e+00 0.0000000000000000e+00 
0.0000000000000000e+00 0.0000000000000000e+00 0.0000000000000000e+00 
0.0000000000000000e+00 0.0000000000000000e+00 0.0000000000000000e+00 
0.0000000000000000e+00 0.0000000000000000e+00 0.0000000000000000e+00 
0.0000000000000000e+00 0.0000000000000000e+00 0.0000000000000000e+00 
0.0000000000000000e+00 0.0000000000000000e+00 0.0000000000000000e+00 
0.0000000000000000e+00 0.0000000000000000e+00 0.0000000000000000e+00 
0.0000000000000000e+00 0.0000000000000000e+00 0.0000000000000000e+00 
0.0000000000000000e+00 0.0000000000000000e+00 0.0000000000000000e+00 
0.0000000000000000e+00 0.0000000000000000e+00 0.0000000000000000e+00 
0.0000000000000000e+00 0.0000000000000000e+00 0.0000000000000000e+00 
0.0000000000000000e+00 0.0000000000000000e+00 0.0000000000000000e+00 
0.0000000000000000e+00 0.0000000000000000e+00 0.0000000000000000e+00 
0.0000000000000000e+00 0.0000000000000000e+00 0.0000000000000000e+00 
0.0000000000000000e+00 0.0000000000000000e+00 0.0000000000000000e+00 
0.0000000000000000e+00 0.0000000000000000e+00 0.0000000000000000e+00 
0.0000000000000000e+00 0.0000000000000000e+00 0.0000000000000000e+00 
0.0000000000000000e+00 0.0000000000000000e+00 0.0000000000000000e+00 
0.0000000000000000e+00 0.0000000000000000e+00 0.0000000000000000e+00 
0.0000000000000000e+00 0.0000000000000000e+00 0.0000000000000000e+00 
0.0000000000000000e+00 0.0000000000000000e+00 0.0000000000000000e+00 
0.0000000000000000e+00 0.0000000000000000e+00 0.0000000000000000e+00 
0.0000000000000000e+00 0.0000000000000000e+00 0.0000000000000000e+00 
0.0000000000000000e+00 0.0000000000000000e+00 0.0000000000000000e+00 
0.0000000000000000e+00 0.0000000000000000e+00 0.0000000000000000e+00 
0.0000000000000000e+00 0.0000000000000000e+00 0.0000000000000000e+00 
0.0000000000000000e+00 0.0000000000000000e+00 0.0000000000000000e+00 
0.0000000000000000e+00 0.0000000000000000e+00 0.0000000000000000e+00 
0.0000000000000000e+00 0.0000000000000000e+00 0.0000000000000000e+00 
0.0000000000000000e+00 0.0000000000000000e+00 0.0000000000000000e+00 
0.0000000000000000e+00 0.0000000000000000e+00 0.0000000000000000e+00 
0.0000000000000000e+00 0.0000000000000000e+00 0.0000000000000000e+00 
0.0000000000000000e+00 0.0000000000000000e+00 0.0000000000000000e+00 
0.0000000000000000e+00 0.0000000000000000e+00 0.0000000000000000e+00 
0.0000000000000000e+00 0.0000000000000000e+00 0.0000000000000000e+00 
0.0000000000000000e+00 0.0000000000000000e+00 0.0000000000000000e+00 
0.0000000000000000e+00 0.0000000000000000e+00 0.0000000000000000e+00 
0.0000000000000000e+00 0.0000000000000000e+00 0.0000000000000000e+00 
0.0000000000000000e+00 0.0000000000000000e+00 0.0000000000000000e+00 
0.0000000000000000e+00 0.0000000000000000e+00 0.0000000000000000e+00 
0.0000000000000000e+00 0.0000000000000000e+00 0.0000000000000000e+00 
0.0000000000000000e+00 0.0000000000000000e+00 0.0000000000000000e+00 
0.0000000000000000e+00 0.0000000000000000e+00 0.0000000000000000e+00 
0.0000000000000000e+00 0.0000000000000000e+00 0.0000000000000000e+00 
0.0000000000000000e+00 0.0000000000000000e+00 0.0000000000000000e+00 
0.0000000000000000e+00 0.0000000000000000e+00 0.0000000000000000e+00 
0.0000000000000000e+00 0.0000000000000000e+00 0.0000000000000000e+00 
0.0000000000000000e+00 0.0000000000000000e+00 0.0000000000000000e+00 
0.0000000000000000e+00 0.0000000000000000e+00 0.0000000000000000e+00 
0.0000000000000000e+00 0.0000000000000000e+00 0.0000000000000000e+00 
0.0000000000000000e+00 0.0000000000000000e+00 0.0000000000000000e+00 
0.0000000000000000e+00 0.0000000000000000e+00 0.0000000000000000e+00 
0.0000000000000000e+00 0.0000000000000000e+00 0.0000000000000000e+00 
0.0000000000000000e+00 0.0000000000000000e+00 0.0000000000000000e+00 
0.0000000000000000e+00 0.0000000000000000e+00 0.0000000000000000e+00 
0.0000000000000000e+00 0.0000000000000000e+00 0.0000000000000000e+00 
0.0000000000000000e+00 0.0000000000000000e+00 0.0000000000000000e+00 
0.0000000000000000e+00 0.0000000000000000e+00 0.0000000000000000e+00 
0.0000000000000000e+00 0.0000000000000000e+00 0.0000000000000000e+00 
0.0000000000000000e+00 0.0000000000000000e+00 0.0000000000000000e+00 
0.0000000000000000e+00 0.0000000000000000e+00 0.0000000000000000e+00 
0.0000000000000000e+00 0.0000000000000000e+00 0.0000000000000000e+00 
0.0000000000000000e+00 0.0000000000000000e+00 0.0000000000000000e+00 
0.0000000000000000e+00 0.0000000000000000e+00 0.0000000000000000e+00 
0.0000000000000000e+00 0.0000000000000000e+00 0.0000000000000000e+00 
0.0000000000000000e+00 0.0000000000000000e+00 0.0000000000000000e+00 
0.0000000000000000e+00 0.0000000000000000e+00 0.0000000000000000e+00 
0.0000000000000000e+00 0.0000000000000000e+00 0.0000000000000000e+00 
0.0000000000000000e+00 0.0000000000000000e+00 0.0000000000000000e+00 
0.0000000000000000e+00 0.0000000000000000e+00 0.0000000000000000e+00 
0.0000000000000000e+00 0.0000000000000000e+00 0.0000000000000000e+00 
0.0000000000000000e+00 0.0000000000000000e+00 0.0000000000000000e+00 
0.0000000000000000e+00 0.0000000000000000e+00 0.0000000000000000e+00 
0.0000000000000000e+00 0.0000000000000000e+00 0.0000000000000000e+00 
0.0000000000000000e+00 0.0000000000000000e+00 0.0000000000000000e+00 
0.0000000000000000e+00 0.0000000000000000e+00 0.0000000000000000e+00 
0.0000000000000000e+00 0.0000000000000000e+00 0.0000000000000000e+00 
0.0000000000000000e+00 0.0000000000000000e+00 0.0000000000000000e+00 
0.0000000000000000e+00 0.0000000000000000e+00 0.0000000000000000e+00 
0.0000000000000000e+00 0.0000000000000000e+00 0.0000000000000000e+00 
0.0000000000000000e+00 0.0000000000000000e+00 0.0000000000000000e+00 
0.0000000000000000e+00 0.0000000000000000e+00 0.0000000000000000e+00 
0.0000000000000000e+00 0.0000000000000000e+00 0.0000000000000000e+00 
0.0000000000000000e+00 0.0000000000000000e+00 0.0000000000000000e+00 
0.0000000000000000e+00 0.0000000000000000e+00 0.0000000000000000e+00 
0.0000000000000000e+00 0.0000000000000000e+00 0.0000000000000000e+00 
0.0000000000000000e+00 0.0000000000000000e+00 0.0000000000000000e+00 
0.0000000000000000e+00 0.0000000000000000e+00 0.0000000000000000e+00 
0.0000000000000000e+00 0.0000000000000000e+00 0.0000000000000000e+00 
0.0000000000000000e+00 0.0000000000000000e+00 0.0000000000000000e+00 
0.0000000000000000e+00 0.0000000000000000e+00 0.0000000000000000e+00 
0.0000000000000000e+00 0.0000000000000000e+00 0.0000000000000000e+00 
0.0000000000000000e+00 0.0000000000000000e+00 0.0000000000000000e+00 
0.0000000000000000e+00 0.0000000000000000e+00 0.0000000000000000e+00 
0.0000000000000000e+00 0.0000000000000000e+00 0.0000000000000000e+00 
0.0000000000000000e+00 0.0000000000000000e+00 0.0000000000000000e+00 
0.0000000000000000e+00 0.0000000000000000e+00 0.0000000000000000e+00 
0.0000000000000000e+00 0.0000000000000000e+00 0.0000000000000000e+00 
0.0000000000000000e+00 0.0000000000000000e+00 0.0000000000000000e+00 
0.0000000000000000e+00 0.0000000000000000e+00 0.0000000000000000e+00 
0.0000000000000000e+00 0.0000000000000000e+00 0.0000000000000000e+00 
0.0000000000000000e+00 0.0000000000000000e+00 0.0000000000000000e+00 
0.0000000000000000e+00 0.0000000000000000e+00 0.0000000000000000e+00 
0.0000000000000000e+00 0.0000000000000000e+00 0.0000000000000000e+00 
0.0000000000000000e+00 0.0000000000000000e+00 0.0000000000000000e+00 
0.0000000000000000e+00 0.0000000000000000e+00 0.0000000000000000e+00 
0.0000000000000000e+00 0.0000000000000000e+00 0.0000000000000000e+00 
0.0000000000000000e+00 0.0000000000000000e+00 0.0000000000000000e+00 
0.0000000000000000e+00 0.0000000000000000e+00 0.0000000000000000e+00 
0.0000000000000000e+00 0.0000000000000000e+00 0.0000000000000000e+00 
0.0000000000000000e+00 0.0000000000000000e+00 0.0000000000000000e+00 
0.0000000000000000e+00 0.0000000000000000e+00 0.0000000000000000e+00 
0.0000000000000000e+00 0.0000000000000000e+00 0.0000000000000000e+00 
0.0000000000000000e+00 0.0000000000000000e+00 0.0000000000000000e+00 
0.0000000000000000e+00 0.0000000000000000e+00 0.0000000000000000e+00 
0.0000000000000000e+00 0.0000000000000000e+00 0.0000000000000000e+00 
0.0000000000000000e+00 0.0000000000000000e+00 0.0000000000000000e+00 
0.0000000000000000e+00 0.0000000000000000e+00 0.0000000000000000e+00 
0.0000000000000000e+00 0.0000000000000000e+00 0.0000000000000000e+00 
0.0000000000000000e+00 0.0000000000000000e+00 0.0000000000000000e+00 
0.0000000000000000e+00 0.0000000000000000e+00 0.0000000000000000e+00 
0.0000000000000000e+00 0.0000000000000000e+00 0.0000000000000000e+00 
0.0000000000000000e+00 0.0000000000000000e+00 0.0000000000000000e+00 
0.0000000000000000e+00 0.0000000000000000e+00 0.0000000000000000e+00 
0.0000000000000000e+00 0.0000000000000000e+00 0.0000000000000000e+00 
0.0000000000000000e+00 0.0000000000000000e+00 0.0000000000000000e+00 
0.0000000000000000e+00 0.0000000000000000e+00 0.0000000000000000e+00 
0.0000000000000000e+00 0.0000000000000000e+00 0.0000000000000000e+00 
0.0000000000000000e+00 0.0000000000000000e+00 0.0000000000000000e+00 
0.0000000000000000e+00 0.0000000000000000e+00 0.0000000000000000e+00 
0.0000000000000000e+00 0.0000000000000000e+00 0.0000000000000000e+00 
0.0000000000000000e+00 0.0000000000000000e+00 0.0000000000000000e+00 
0.0000000000000000e+00 0.0000000000000000e+00 0.0000000000000000e+00 
0.0000000000000000e+00 0.0000000000000000e+00 0.0000000000000000e+00 
0.0000000000000000e+00 0.0000000000000000e+00 0.0000000000000000e+00 
0.0000000000000000e+00 0.0000000000000000e+00 0.0000000000000000e+00 
0.0000000000000000e+00 0.0000000000000000e+00 0.0000000000000000e+00 
0.0000000000000000e+00 0.0000000000000000e+00 0.0000000000000000e+00 
0.0000000000000000e+00 0.0000000000000000e+00 0.0000000000000000e+00 
0.0000000000000000e+00 0.0000000000000000e+00 0.0000000000000000e+00 
0.0000000000000000e+00 0.0000000000000000e+00 0.0000000000000000e+00 
0.0000000000000000e+00 0.0000000000000000e+00 0.0000000000000000e+00 
0.0000000000000000e+00 0.0000000000000000e+00 0.0000000000000000e+00 
0.0000000000000000e+00 0.0000000000000000e+00 0.0000000000000000e+00 
0.0000000000000000e+00 0.0000000000000000e+00 0.0000000000000000e+00 
0.0000000000000000e+00 0.0000000000000000e+00 0.0000000000000000e+00 
0.0000000000000000e+00 0.0000000000000000e+00 0.0000000000000000e+00 
0.0000000000000000e+00 0.0000000000000000e+00 0.0000000000000000e+00 
0.0000000000000000e+00 0.0000000000000000e+00 0.0000000000000000e+00 
0.0000000000000000e+00 0.0000000000000000e+00 0.0000000000000000e+00 
0.0000000000000000e+00 0.0000000000000000e+00 0.0000000000000000e+00 
0.0000000000000000e+00 0.0000000000000000e+00 0.0000000000000000e+00 
0.0000000000000000e+00 0.0000000000000000e+00 0.0000000000000000e+00 
0.0000000000000000e+00 0.0000000000000000e+00 0.0000000000000000e+00 
0.0000000000000000e+00 0.0000000000000000e+00 0.0000000000000000e+00 
0.0000000000000000e+00 0.0000000000000000e+00 0.0000000000000000e+00 
0.0000000000000000e+00 0.0000000000000000e+00 0.0000000000000000e+00 
0.0000000000000000e+00 0.0000000000000000e+00 0.0000000000000000e+00 
0.0000000000000000e+00 0.0000000000000000e+00 0.0000000000000000e+00 
0.0000000000000000e+00 0.0000000000000000e+00 0.0000000000000000e+00 
0.0000000000000000e+00 0.0000000000000000e+00 0.0000000000000000e+00 
0.0000000000000000e+00 0.0000000000000000e+00 0.0000000000000000e+00 
0.0000000000000000e+00 0.0000000000000000e+00 0.0000000000000000e+00 
0.0000000000000000e+00 0.0000000000000000e+00 0.0000000000000000e+00 
0.0000000000000000e+00 0.0000000000000000e+00 0.0000000000000000e+00 
0.0000000000000000e+00 0.0000000000000000e+00 0.0000000000000000e+00 
0.0000000000000000e+00 0.0000000000000000e+00 0.0000000000000000e+00 
0.0000000000000000e+00 0.0000000000000000e+00 0.0000000000000000e+00 
0.0000000000000000e+00 0.0000000000000000e+00 0.0000000000000000e+00 
0.0000000000000000e+00 0.0000000000000000e+00 0.0000000000000000e+00 
0.0000000000000000e+00 0.0000000000000000e+00 0.0000000000000000e+00 
0.0000000000000000e+00 0.0000000000000000e+00 0.0000000000000000e+00 
0.0000000000000000e+00 0.0000000000000000e+00 0.0000000000000000e+00 
0.0000000000000000e+00 0.0000000000000000e+00 0.0000000000000000e+00 
0.0000000000000000e+00 0.0000000000000000e+00 0.0000000000000000e+00 
0.0000000000000000e+00 0.0000000000000000e+00 0.0000000000000000e+00 
0.0000000000000000e+00 0.0000000000000000e+00 0.0000000000000000e+00 
0.0000000000000000e+00 0.0000000000000000e+00 0.0000000000000000e+00 
0.0000000000000000e+00 0.0000000000000000e+00 0.0000000000000000e+00 
0.0000000000000000e+00 0.0000000000000000e+00 0.0000000000000000e+00 
0.0000000000000000e+00 0.0000000000000000e+00 0.0000000000000000e+00 
0.0000000000000000e+00 0.0000000000000000e+00 0.0000000000000000e+00 
0.0000000000000000e+00 0.0000000000000000e+00 0.0000000000000000e+00 
0.0000000000000000e+00 0.0000000000000000e+00 0.0000000000000000e+00 
0.0000000000000000e+00 0.0000000000000000e+00 0.0000000000000000e+00 
0.0000000000000000e+00 0.0000000000000000e+00 0.0000000000000000e+00 
0.0000000000000000e+00 0.0000000000000000e+00 0.0000000000000000e+00 
0.0000000000000000e+00 0.0000000000000000e+00 0.0000000000000000e+00 
0.0000000000000000e+00 0.0000000000000000e+00 0.0000000000000000e+00 
0.0000000000000000e+00 0.0000000000000000e+00 0.0000000000000000e+00 
0.0000000000000000e+00 0.0000000000000000e+00 0.0000000000000000e+00 
0.0000000000000000e+00 0.0000000000000000e+00 0.0000000000000000e+00 
0.0000000000000000e+00 0.0000000000000000e+00 0.0000000000000000e+00 
0.0000000000000000e+00 0.0000000000000000e+00 0.0000000000000000e+00 
0.0000000000000000e+00 0.0000000000000000e+00 0.0000000000000000e+00 
0.0000000000000000e+00 0.0000000000000000e+00 0.0000000000000000e+00 
0.0000000000000000e+00 0.0000000000000000e+00 0.0000000000000000e+00 
0.0000000000000000e+00 0.0000000000000000e+00 0.0000000000000000e+00 
0.0000000000000000e+00 0.0000000000000000e+00 0.0000000000000000e+00 
0.0000000000000000e+00 0.0000000000000000e+00 0.0000000000000000e+00 
0.0000000000000000e+00 0.0000000000000000e+00 0.0000000000000000e+00 
0.0000000000000000e+00 0.0000000000000000e+00 0.0000000000000000e+00 
0.0000000000000000e+00 0.0000000000000000e+00 0.0000000000000000e+00 
0.0000000000000000e+00 0.0000000000000000e+00 0.0000000000000000e+00 
0.0000000000000000e+00 0.0000000000000000e+00 0.0000000000000000e+00 
0.0000000000000000e+00 0.0000000000000000e+00 0.0000000000000000e+00 
0.0000000000000000e+00 0.0000000000000000e+00 0.0000000000000000e+00 
0.0000000000000000e+00 0.0000000000000000e+00 0.0000000000000000e+00 
0.0000000000000000e+00 0.0000000000000000e+00 0.0000000000000000e+00 
0.0000000000000000e+00 0.0000000000000000e+00 0.0000000000000000e+00 
0.0000000000000000e+00 0.0000000000000000e+00 0.0000000000000000e+00 
0.0000000000000000e+00 0.0000000000000000e+00 0.0000000000000000e+00 
0.0000000000000000e+00 0.0000000000000000e+00 0.0000000000000000e+00 
0.0000000000000000e+00 0.0000000000000000e+00 0.0000000000000000e+00 
0.0000000000000000e+00 0.0000000000000000e+00 0.0000000000000000e+00 
0.0000000000000000e+00 0.0000000000000000e+00 0.0000000000000000e+00 
0.0000000000000000e+00 0.0000000000000000e+00 0.0000000000000000e+00 
0.0000000000000000e+00 0.0000000000000000e+00 0.0000000000000000e+00 
0.0000000000000000e+00 0.0000000000000000e+00 0.0000000000000000e+00 
0.0000000000000000e+00 0.0000000000000000e+00 0.0000000000000000e+00 
0.0000000000000000e+00 0.0000000000000000e+00 0.0000000000000000e+00 
0.0000000000000000e+00 0.0000000000000000e+00 0.0000000000000000e+00 
0.0000000000000000e+00 0.0000000000000000e+00 0.0000000000000000e+00 
0.0000000000000000e+00 0.0000000000000000e+00 0.0000000000000000e+00 
0.0000000000000000e+00 0.0000000000000000e+00 0.0000000000000000e+00 
0.0000000000000000e+00 0.0000000000000000e+00 0.0000000000000000e+00 
0.0000000000000000e+00 0.0000000000000000e+00 0.0000000000000000e+00 
0.0000000000000000e+00 0.0000000000000000e+00 0.0000000000000000e+00 
0.0000000000000000e+00 0.0000000000000000e+00 0.0000000000000000e+00 
0.0000000000000000e+00 0.0000000000000000e+00 0.0000000000000000e+00 
0.0000000000000000e+00 0.0000000000000000e+00 0.0000000000000000e+00 
0.0000000000000000e+00 0.0000000000000000e+00 0.0000000000000000e+00 
0.0000000000000000e+00 0.0000000000000000e+00 0.0000000000000000e+00 
0.0000000000000000e+00 0.0000000000000000e+00 0.0000000000000000e+00 
0.0000000000000000e+00 0.0000000000000000e+00 0.0000000000000000e+00 
0.0000000000000000e+00 0.0000000000000000e+00 0.0000000000000000e+00 

VECTORS Displacement float
0.0000000000000000e+00 0.0000000000000000e+00 0.0000000000000000e+00 
9.1046438522362670e-04 8.1118387914801777e-04 0.0000000000000000e+00 
0.0000000000000000e+00 0.0000000000000000e+00 0.0000000000000000e+00 
9.1046631931339340e-04 8.1118484821878336e-04 0.0000000000000000e+00 
4.0407581121064011e-04 4.7124287972631737e-04 0.0000000000000000e+00 
4.0407778160793145e-04 4.7124326677140010e-04 0.0000000000000000e+00 
0.0000000000000000e+00 0.0000000000000000e+00 0.0000000000000000e+00 
9.1046696772325740e-04 8.1118332414087803e-04 2.9684568253025006e-10 
4.0407757628454333e-04 4.7124349110918120e-04 2.9707081129220861e-10 
0.0000000000000000e+00 0.0000000000000000e+00 0.0000000000000000e+00 
7.6246581250238995e-04 -7.7099059552614125e-04 0.0000000000000000e+00 
0.0000000000000000e+00 0.0000000000000000e+00 0.0000000000000000e+00 
7.6246764336565672e-04 -7.7099093181583602e-04 0.0000000000000000e+00 
3.0990231963576488e-04 -4.1978655090098521e-04 0.0000000000000000e+00 
3.0990482883217700e-04 -4.1978705866389852e-04 0.0000000000000000e+00 
0.0000000000000000e+00 0.0000000000000000e+00 0.0000000000000000e+00 
7.6246832020768511e-04 -7.7099008023880262e-04 -2.2242915793687063e-10 
3.0990419765930982e-04 -4.1978710219252872e-04 -3.3425615947557860e-10 
2.3033509806156213e-03 1.2330377355253359e-03 0.0000000000000000e+00 
2.3033549450571325e-03 1.2330382843386521e-03 0.0000000000000000e+00 
1.5492040753017167e-03 1.0770207871088110e-03 0.0000000000000000e+00 
1.5492074784455238e-03 1.0770214461679165e-03 0.0000000000000000e+00 
2.3033530606664542e-03 1.2330366219069522e-03 6.9276638660577884e-10 
1.5492061957450673e-03 1.0770200944613716e-03 5.9155896323827881e-10 
2.1982733653642937e-03 -1.1701826062153211e-03 0.0000000000000000e+00 
2.1982769710755441e-03 -1.1701836083545230e-03 0.0000000000000000e+00 
1.4324473658701921e-03 -1.0342478200386623e-03 0.0000000000000000e+00 
1.4324491368271704e-03 -1.0342489057750886e-03 0.0000000000000000e+00 
2.1982757242515016e-03 -1.1701826985841754e-03 -7.1715333770972707e-10 
1.4324489935798193e-03 -1.0342474507181066e-03 -5.1158472936783950e-10 
3.7671103570408194e-03 1.3273262601103029e-03 0.0000000000000000e+00 
3.7671134632045068e-03 1.3273231549358387e-03 0.0000000000000000e+00 
3.0459570475514105e-03 1.2821421735331748e-03 0.0000000000000000e+00 
3.0459624697016401e-03 1.2821407878899826e-03 0.0000000000000000e+00 
3.7671105000113727e-03 1.3273245215446650e-03 3.1195028391273532e-10 
3.0459585126526873e-03 1.2821414309273230e-03 9.1138995864617430e-10 
3.6354381367515159e-03 -1.2454354801992541e-03 0.0000000000000000e+00 
3.6354416007369971e-03 -1.2454335339377657e-03 0.0000000000000000e+00 
2.9255749769803805e-03 -1.2092868357501270e-03 0.0000000000000000e+00 
2.9255806812231067e-03 -1.2092861710954615e-03 0.0000000000000000e+00 
3.6354384330898378e-03 -1.2454341159063803e-03 -4.3424687518327961e-10 
2.9255788322505106e-03 -1.2092858323792858e-03 -8.4003181514186961e-10 
5.4501572335050666e-03 1.3662623488681172e-03 0.0000000000000000e+00 
5.4501566551023719e-03 1.3662621913348694e-03 0.0000000000000000e+00 
4.5684990514244413e-03 1.3818614139634363e-03 0.0000000000000000e+00 
4.5684992666316388e-03 1.3818592378816775e-03 0.0000000000000000e+00 
5.4501570009386976e-03 1.3662628364372880e-03 6.6903715616699958e-11 
4.5684994336087446e-03 1.3818607255673210e-03 2.7030197539182460e-10 
5.3065412519256155e-03 -1.2407919464069268e-03 0.0000000000000000e+00 
5.3065395751377793e-03 -1.2407912891930718e-03 0.0000000000000000e+00 
4.4299055053106185e-03 -1.2824834280849840e-03 0.0000000000000000e+00 
4.4299067899072992e-03 -1.2824811783444827e-03 0.0000000000000000e+00 
5.3065419713236930e-03 -1.2407929222134984e-03 -2.8277374075047087e-11 
4.4299044806870242e-03 -1.2824837439184560e-03 -1.6763704125963144e-10 
6.9473566912853476e-03 9.4887703061921234e-04 0.0000000000000000e+00 
6.9473591440270170e-03 9.4887702704735989e-04 0.0000000000000000e+00 
6.2898353196159723e-03 1.2072515353965462e-03 0.0000000000000000e+00 
6.2898365302812252e-03 1.2072518345816257e-03 0.0000000000000000e+00 
6.9473569028696159e-03 9.4887650944366453e-04 2.5331495724078593e-10 
6.2898383294718611e-03 1.2072521002619322e-03 3.2125922880728281e-10 
6.7974528882162582e-03 -7.5096357591273037e-04 0.0000000000000000e+00 
6.7974539582480731e-03 -7.5096292276749955e-04 0.0000000000000000e+00 
6.1427713199631211e-03 -1.0484265346707828e-03 0.0000000000000000e+00 
6.1427717125031702e-03 -1.0484264746810177e-03 0.0000000000000000e+00 
6.7974534042745732e-03 -7.5096315881767960e-04 4.0486297496227648e-11 
6.1427713116483252e-03 -1.0484270342767182e-03 -6.1779740662551790e-11 
7.5125676528526508e-03 3.6354873846339015e-04 0.0000000000000000e+00 
7.5125667947259596e-03 3.6354897601564666e-04 0.0000000000000000e+00 
7.3560037549986398e-03 6.4365701587366236e-04 0.0000000000000000e+00 
7.3560036356799495e-03 6.4365614918906891e-04 0.0000000000000000e+00 
7.5125670153694223e-03 3.6354926935549398e-04 2.1868682928525643e-11 
7.3560041810978253e-03 6.4365733921386561e-04 1.8842789947199287e-10 
7.3571229082240001e-03 -7.3372428048900431e-05 0.0000000000000000e+00 
7.3571217298046086e-03 -7.3371053347955732e-05 0.0000000000000000e+00 
7.2034993888429599e-03 -4.0183400177521138e-04 0.0000000000000000e+00 
7.2034993226529126e-03 -4.0183253801537875e-04 0.0000000000000000e+00 
7.3571219696353177e-03 -7.3372070399954124e-05 1.9489013878315984e-10 
7.2034994471331668e-03 -4.0183262922687034e-04 1.6265144780095016e-10 
7.3497360148056419e-03 5.1967942787852994e-05 0.0000000000000000e+00 
7.3497364426638855e-03 5.1968450933035379e-05 0.0000000000000000e+00 
7.4854233150837834e-03 1.6672150498123943e-04 0.0000000000000000e+00 
7.4854232648222108e-03 1.6672181865235044e-04 0.0000000000000000e+00 
7.3497370478876976e-03 5.1968035481248962e-05 -2.0749112072006444e-11 
7.4854238165279474e-03 1.6672260826509848e-04 8.4333913646563643e-11 
7.1864367906530535e-03 3.4921162260632640e-04 0.0000000000000000e+00 
7.1864369355636396e-03 3.4921276572878599e-04 0.0000000000000000e+00 
7.3263128158512136e-03 1.7642357268871813e-04 0.0000000000000000e+00 
7.3263126230533682e-03 1.7642435769126799e-04 0.0000000000000000e+00 
7.1864381288083423e-03 3.4921094094414831e-04 1.1783913085735671e-10 
7.3263124173763815e-03 1.7642307641743113e-04 1.0616547381148726e-10 
7.0064600632314096e-03 4.6629069111322029e-05 0.0000000000000000e+00 
7.0064587213751472e-03 4.6628548354377959e-05 0.0000000000000000e+00 
7.1741274934625440e-03 2.2543659157979031e-05 0.0000000000000000e+00 
7.1741278403348475e-03 2.2543312055731642e-05 0.0000000000000000e+00 
7.0064579660764495e-03 4.6627482217110602e-05 -2.5952761944366875e-10 
7.1741288201298782e-03 2.2542537811393986e-05 8.7462988881342609e-11 
6.8335667061616961e-03 4.8740904567816113e-04 0.0000000000000000e+00 
6.8335650183056129e-03 4.8741112407631144e-04 0.0000000000000000e+00 
7.0061013549830931e-03 4.4219297480239559e-04 0.0000000000000000e+00 
7.0061018563390177e-03 4.4219456618855890e-04 0.0000000000000000e+00 
6.8335645032057387e-03 4.8741022734470071e-04 3.1791050003980718e-10 
7.0061020182130450e-03 4.4219394847448982e-04 1.0062666345263911e-10 
6.7623756803763136e-03 1.7963273649591592e-04 0.0000000000000000e+00 
6.7623726871463407e-03 1.7963362736081841e-04 0.0000000000000000e+00 
6.8660380194034715e-03 1.0569726358395192e-04 0.0000000000000000e+00 
6.8660345391005715e-03 1.0569713734014738e-04 0.0000000000000000e+00 
6.7623746617311541e-03 1.7963400761343445e-04 -6.1587041248510971e-10 
6.8660359633300680e-03 1.0569753605610393e-04 -3.1739010132096707e-10 
6.5812397393027336e-03 5.0857178860142394e-04 0.0000000000000000e+00 
6.5812362833812029e-03 5.0857169319717455e-04 0.0000000000000000e+00 
6.6887063851063721e-03 5.0310869356013721e-04 0.0000000000000000e+00 
6.6887032474643874e-03 5.0310980185527994e-04 0.0000000000000000e+00 
6.5812382044153715e-03 5.0857067944430037e-04 4.2989502921231346e-10 
6.6887034197204822e-03 5.0310889153655470e-04 3.8927877966307136e-10 
6.6429269948830522e-03 3.2655858270744622e-04 0.0000000000000000e+00 
6.6429253415414558e-03 3.2655666846912395e-04 0.0000000000000000e+00 
6.6895053238753468e-03 2.5536028320037525e-04 0.0000000000000000e+00 
6.6895039093099731e-03 2.5535990468655254e-04 0.0000000000000000e+00 
6.6429272539728513e-03 3.2655739571983114e-04 -7.8249447352858976e-10 
6.6895067455006096e-03 2.5536076049498745e-04 -5.4098939909196096e-10 
6.4594874039906620e-03 5.2743726612440361e-04 0.0000000000000000e+00 
6.4594850518705643e-03 5.2743911375079881e-04 0.0000000000000000e+00 
6.5064345076419382e-03 5.1530756311148789e-04 0.0000000000000000e+00 
6.5064330495385788e-03 5.1530777228939552e-04 0.0000000000000000e+00 
6.4594874524596287e-03 5.2743821553675660e-04 3.0025469859302970e-10 
6.5064345254019678e-03 5.1530729304210914e-04 2.5084781898054836e-10 
6.5943871085560749e-03 4.3397416318575918e-04 0.0000000000000000e+00 
6.5943817876407285e-03 4.3397228108837173e-04 0.0000000000000000e+00 
6.6133853182241426e-03 3.8676908118258384e-04 0.0000000000000000e+00 
6.6133817216589251e-03 3.8676612811173105e-04 0.0000000000000000e+00 
6.5943837658544195e-03 4.3397296577854847e-04 -9.7944216571275104e-10 
6.6133844352376688e-03 3.8676746416757969e-04 -8.1249072139404610e-10 
6.4190942986050055e-03 5.7737411388533765e-04 0.0000000000000000e+00 
6.4190877242257067e-03 5.7737564255483690e-04 0.0000000000000000e+00 
6.4328337352871443e-03 5.4852747222129022e-04 0.0000000000000000e+00 
6.4328299365451740e-03 5.4852974423597132e-04 0.0000000000000000e+00 
6.4190904431348454e-03 5.7737514391107770e-04 4.7373106431872212e-10 
6.4328317277443578e-03 5.4852922553710057e-04 3.5448090910823801e-10 
6.5510288093182699e-03 4.7609834356599851e-04 0.0000000000000000e+00 
6.5510252772431696e-03 4.7610062779528697e-04 0.0000000000000000e+00 
6.5765914614038558e-03 4.6351582701515944e-04 0.0000000000000000e+00 
6.5765853290192652e-03 4.6351579356042653e-04 0.0000000000000000e+00 
6.5510273814578029e-03 4.7609982120396318e-04 -5.9477416668174468e-10 
6.5765882990583852e-03 4.6351638376824643e-04 -7.1026891745438704e-10 
6.3962265922500525e-03 6.5899340859627408e-04 0.0000000000000000e+00 
6.3962220275579967e-03 6.5899089233768555e-04 0.0000000000000000e+00 
6.4103845270480258e-03 6.1532040807566412e-04 0.0000000000000000e+00 
6.4103785404380264e-03 6.1531980572043191e-04 0.0000000000000000e+00 
6.3962240947253932e-03 6.5899164754296591e-04 2.6032351227305790e-10 
6.4103806807528996e-03 6.1532027635376955e-04 4.5746425498566964e-10 
6.4428550336758268e-03 4.5836895080831588e-04 0.0000000000000000e+00 
6.4428559532117890e-03 4.5837084219652524e-04 0.0000000000000000e+00 
6.5086294703379042e-03 4.7186235633597042e-04 0.0000000000000000e+00 
6.5086288212755933e-03 4.7186446894080162e-04 0.0000000000000000e+00 
6.4428554782422435e-03 4.5836999057114608e-04 -2.1866615982410497e-10 
6.5086301968285722e-03 4.7186349844559962e-04 -2.2874144793078511e-10 
6.3147805978165834e-03 7.5244835205634487e-04 0.0000000000000000e+00 
6.3147815358031165e-03 7.5244607957358311e-04 0.0000000000000000e+00 
6.3671337515538769e-03 7.0695620176179825e-04 0.0000000000000000e+00 
6.3671332441601371e-03 7.0695327043386992e-04 0.0000000000000000e+00 
6.3147812716363065e-03 7.5244717280450741e-04 -4.2122817528980566e-10 
6.3671335095346511e-03 7.0695448811824784e-04 -1.4758008064097850e-10 
6.2619445153030322e-03 4.3793773673204506e-04 0.0000000000000000e+00 
6.2619466211251930e-03 4.3793897870533208e-04 0.0000000000000000e+00 
6.3574086944751329e-03 4.4534189761067733e-04 0.0000000000000000e+00 
6.3574106920965320e-03 4.4534325422286255e-04 0.0000000000000000e+00 
6.2619456723387035e-03 4.3793805921691362e-04 -4.5915761384245619e-11 
6.3574109253894326e-03 4.4534279666450340e-04 -4.1128690401579280e-11 
6.1478713006056307e-03 8.1906120578616865e-04 0.0000000000000000e+00 
6.1478736639280235e-03 8.1906010248116064e-04 0.0000000000000000e+00 
6.2389340593172801e-03 7.8962503524508513e-04 0.0000000000000000e+00 
6.2389365945058704e-03 7.8962335408010197e-04 0.0000000000000000e+00 
6.1478731351166192e-03 8.1906063243105190e-04 -6.4614759602825243e-10 
6.2389346197062106e-03 7.8962414209547737e-04 -6.9978445566227712e-10 
6.0757878315685007e-03 4.3694516582072905e-04 0.0000000000000000e+00 
6.0757901578258004e-03 4.3694667692248190e-04 0.0000000000000000e+00 
6.1694966954679740e-03 4.3680895891172369e-04 0.0000000000000000e+00 
6.1694987388875326e-03 4.3680972077841696e-04 0.0000000000000000e+00 
6.0757886995386236e-03 4.3694533436385995e-04 2.4697007295297030e-10 
6.1694981944605742e-03 4.3680919488297903e-04 2.4441294006576986e-10 
5.9441153848528534e-03 8.8192913218599397e-04 0.0000000000000000e+00 
5.9441176910788474e-03 8.8192845818556385e-04 0.0000000000000000e+00 
6.0493291126180642e-03 8.4669800405439170e-04 0.0000000000000000e+00 
6.0493320300086728e-03 8.4669696823832250e-04 0.0000000000000000e+00 
5.9441171110801681e-03 8.8192870858021136e-04 -6.3588923442963288e-10 
6.0493304120651584e-03 8.4669802842485189e-04 -6.7879952412738207e-10 
5.8380143283391995e-03 4.5561284159967367e-04 0.0000000000000000e+00 
5.8380180671931837e-03 4.5561430680383420e-04 0.0000000000000000e+00 
5.9643701170629749e-03 4.4037813947046377e-04 0.0000000000000000e+00 
5.9643729666970079e-03 4.4037935603555327e-04 0.0000000000000000e+00 
5.8380159372450500e-03 4.5561326639281070e-04 4.7900703580118957e-10 
5.9643713623324466e-03 4.4037848629587174e-04 4.2682329891216609e-10 
5.6947982887250370e-03 9.4475104549560812e-04 0.0000000000000000e+00 
5.6948012410619076e-03 9.4474953627897386e-04 0.0000000000000000e+00 
5.8237539276549573e-03 9.2147371081479593e-04 0.0000000000000000e+00 
5.8237564109698122e-03 9.2147249040180380e-04 0.0000000000000000e+00 
5.6947999731397480e-03 9.4475013004262083e-04 -7.9704817519180818e-10 
5.8237551241612263e-03 9.2147334531778383e-04 -7.0681883306938467e-10 
5.6259524066827882e-03 4.7149286131365571e-04 0.0000000000000000e+00 
5.6259576993270364e-03 4.7149405571835802e-04 0.0000000000000000e+00 
5.7242630044258471e-03 4.7371598301123658e-04 0.0000000000000000e+00 
5.7242679211559830e-03 4.7371629236434384e-04 0.0000000000000000e+00 
5.6259557363283752e-03 4.7149356415712436e-04 8.8093266800119765e-10 
5.7242654984252734e-03 4.7371635233994422e-04 7.8036781333201485e-10 
5.5156826036202016e-03 9.3079824762288567e-04 0.0000000000000000e+00 
5.5156888385078633e-03 9.3079499325661441e-04 0.0000000000000000e+00 
5.5925407214995719e-03 9.3873035135641329e-04 0.0000000000000000e+00 
5.5925449528410817e-03 9.3872734078343434e-04 0.0000000000000000e+00 
5.5156862670233857e-03 9.3079589875012933e-04 -1.1934353301887823e-09 
5.5925430004692619e-03 9.3872880944480025e-04 -1.1293172243932084e-09 
5.3287819422181961e-03 4.8958242396268366e-04 0.0000000000000000e+00 
5.3225361162937542e-03 7.1175803263876826e-04 0.0000000000000000e+00 
5.3287921787601175e-03 4.8958383197355258e-04 0.0000000000000000e+00 
5.3225464233354813e-03 7.1175868369629852e-04 0.0000000000000000e+00 
5.4985108511432903e-03 4.6758046749287990e-04 0.0000000000000000e+00 
5.3235298157332488e-03 5.9285425966656665e-04 0.0000000000000000e+00 
5.4985197013807221e-03 4.6758096199298770e-04 0.0000000000000000e+00 
5.3235405196620494e-03 5.9285526365672426e-04 0.0000000000000000e+00 
5.3287839963826328e-03 4.8958135855380405e-04 1.6761907804546955e-09 
5.3225393513324200e-03 7.1175791461334126e-04 9.5555159413202392e-10 
5.4985147687862165e-03 4.6757994252886911e-04 1.5472884778840641e-09 
5.3235315611778527e-03 5.9285413138561102e-04 1.3142666586933084e-09 
5.3136763072160597e-03 8.4644559996994366e-04 0.0000000000000000e+00 
5.3136855284968941e-03 8.4644339294835864e-04 0.0000000000000000e+00 
5.3217943298783316e-03 7.9352098855017188e-04 0.0000000000000000e+00 
5.3218042313714631e-03 7.9352068820626068e-04 0.0000000000000000e+00 
5.3136822933705702e-03 8.4644445241989280e-04 7.9973571760334735e-11 
5.3217992822778221e-03 7.9352090354842784e-04 5.3891677139579317e-10 
5.2855179880182349e-03 9.8632657652497906e-04 0.0000000000000000e+00 
5.2855260508153749e-03 9.8632316170612667e-04 0.0000000000000000e+00 
5.4143596607486638e-03 9.5259419392476662e-04 0.0000000000000000e+00 
5.2982507031377598e-03 9.0238763366253362e-04 0.0000000000000000e+00 
5.4143671838965905e-03 9.5258962221253692e-04 0.0000000000000000e+00 
5.2982594143277002e-03 9.0238457352386045e-04 0.0000000000000000e+00 
5.2855235988430649e-03 9.8632257851447654e-04 -5.6262018177841230e-10 
5.4143636841320264e-03 9.5259099524683277e-04 -1.0304604600790538e-09 
5.2982568464781526e-03 9.0238619289279053e-04 2.9389390039113350e-11 

VECTORS Stress float
1.1948097856876745e+02 -4.6341913900809573e+00 -2.8782781576226639e-13 
1.1953579619611446e+02 -1.8698316843911016e+00 -4.1265316191306979e-13 
1.1948097856876745e+02 -4.6341913900809573e+00 -2.8782781576226639e-13 
1.1953579619611446e+02 -1.8698316843911016e+00 -4.1265316191306979e-13 
1.1960944297886203e+02 -2.2895914469754644e+00 -3.2231853956397350e-13 
1.1960944297886203e+02 -2.2895914469754644e+00 -3.2231853956397350e-13 
1.1948097856876745e+02 -4.6341913900809573e+00 -2.8782781576226639e-13 
1.1953579619611446e+02 -1.8698316843911016e+00 -4.1265316191306979e-13 
1.1960944297886203e+02 -2.2895914469754644e+00 -3.2231853956397350e-13 
1.0222695773887324e+02 -4.8513474121974127e+00 2.0113922356172380e-13 
9.8971293736684856e+01 -1.2832848615275907e+00 3.0935510220820772e-13 
1.0222695773887324e+02 -4.8513474121974127e+00 2.0113922356172380e-13 
9.8971293736684856e+01 -1.2832848615275907e+00 3.0935510220820772e-13 
9.9592262448656356e+01 -1.8391582349340752e+00 2.2836310256227800e-13 
9.9592262448656356e+01 -1.8391582349340752e+00 2.2836310256227800e-13 
1.0222695773887324e+02 -4.8513474121974127e+00 2.0113922356172380e-13 
9.8971293736684856e+01 -1.2832848615275907e+00 3.0935510220820772e-13 
9.9592262448656356e+01 -1.8391582349340752e+00 2.2836310256227800e-13 
1.1948837121692259e+02 -3.2290365483336245e+00 -4.8690580841863108e-13 
1.1948837121692259e+02 -3.2290365483336245e+00 -4.8690580841863108e-13 
1.1952169133069174e+02 -2.5930365301269376e+00 -5.0726204913420683e-13 
1.1952169133069174e+02 -2.5930365301269376e+00 -5.0726204913420683e-13 
1.1948837121692259e+02 -3.2290365483336245e+00 -4.8690580841863108e-13 
1.1952169133069174e+02 -2.5930365301269376e+00 -5.0726204913420683e-13 
9.9981324460771702e+01 -2.8005789950257167e+00 4.1571599385321348e-13 
9.9981324460771702e+01 -2.8005789950257167e+00 4.1571599385321348e-13 
9.9407414043596418e+01 -2.1015098892767128e+00 4.0404779453161037e-13 
9.9407414043596418e+01 -2.1015098892767128e+00 4.0404779453161037e-13 
9.9981324460771702e+01 -2.8005789950257167e+00 4.1571599385321348e-13 
9.9407414043596418e+01 -2.1015098892767128e+00 4.0404779453161037e-13 
1.1909302869483417e+02 -3.2407940213124675e+00 -1.6534181770152658e-13 
1.1909302869483417e+02 -3.2407940213124675e+00 -1.6534181770152658e-13 
1.1927918453549955e+02 -3.2650771743260520e+00 -3.2592176340455885e-13 
1.1927918453549955e+02 -3.2650771743260520e+00 -3.2592176340455885e-13 
1.1909302869483417e+02 -3.2407940213124675e+00 -1.6534181770152658e-13 
1.1927918453549955e+02 -3.2650771743260520e+00 -3.2592176340455885e-13 
1.0081720768658852e+02 -2.7287756469995657e+00 1.9573489581724735e-13 
1.0081720768658852e+02 -2.7287756469995657e+00 1.9573489581724735e-13 
1.0042156177038987e+02 -2.8179331802034540e+00 3.1538198562202026e-13 
1.0042156177038987e+02 -2.8179331802034540e+00 3.1538198562202026e-13 
1.0081720768658852e+02 -2.7287756469995657e+00 1.9573489581724735e-13 
1.0042156177038987e+02 -2.8179331802034540e+00 3.1538198562202026e-13 
1.1832489040888777e+02 -3.5246037705592244e+00 -5.7763389567938894e-14 
1.1832489040888777e+02 -3.5246037705592244e+00 -5.7763389567938894e-14 
1.1868431558008797e+02 -3.4258508540015100e+00 -9.1531672490407806e-14 
1.1868431558008797e+02 -3.4258508540015100e+00 -9.1531672490407806e-14 
1.1832489040888777e+02 -3.5246037705592244e+00 -5.7763389567938894e-14 
1.1868431558008797e+02 -3.4258508540015100e+00 -9.1531672490407806e-14 
1.0228798964684211e+02 -3.0236282823980218e+00 1.3875456974023294e-14 
1.0228798964684211e+02 -3.0236282823980218e+00 1.3875456974023294e-14 
1.0152610458589697e+02 -2.9207292529836195e+00 9.7883414567591189e-14 
1.0152610458589697e+02 -2.9207292529836195e+00 9.7883414567591189e-14 
1.0228798964684211e+02 -3.0236282823980218e+00 1.3875456974023294e-14 
1.0152610458589697e+02 -2.9207292529836195e+00 9.7883414567591189e-14 
1.1737603192231745e+02 -2.1566530880681967e+00 -6.4166924675298450e-14 
1.1737603192231745e+02 -2.1566530880681967e+00 -6.4166924675298450e-14 
1.1786768008758281e+02 -3.0758792328915661e+00 -5.3194512165393606e-14 
1.1786768008758281e+02 -3.0758792328915661e+00 -5.3194512165393606e-14 
1.1737603192231745e+02 -2.1566530880681967e+00 -6.4166924675298450e-14 
1.1786768008758281e+02 -3.0758792328915661e+00 -5.3194512165393606e-14 
1.0441370173561518e+02 -1.9009302221611506e+00 -3.6440494203544863e-14 
1.0441370173561518e+02 -1.9009302221611506e+00 -3.6440494203544863e-14 
1.0326915509694118e+02 -2.6702417627011528e+00 -3.1245517698616213e-14 
1.0326915509694118e+02 -2.6702417627011528e+00 -3.1245517698616213e-14 
1.0441370173561518e+02 -1.9009302221611506e+00 -3.6440494203544863e-14 
1.0326915509694118e+02 -2.6702417627011528e+00 -3.1245517698616213e-14 
1.1627613652358741e+02 -2.7245078990654292e-01 -1.1677975384382923e-13 
1.1627613652358741e+02 -2.7245078990654292e-01 -1.1677975384382923e-13 
1.1690466714486956e+02 -1.1512298660063607e+00 -8.2228134555158137e-14 
1.1690466714486956e+02 -1.1512298660063607e+00 -8.2228134555158137e-14 
1.1627613652358741e+02 -2.7245078990654292e-01 -1.1677975384382923e-13 
1.1690466714486956e+02 -1.1512298660063607e+00 -8.2228134555158137e-14 
1.0724029086989867e+02 -2.4873093772748689e-01 9.2482001538318821e-14 
1.0724029086989867e+02 -2.4873093772748689e-01 9.2482001538318821e-14 
1.0567428219475369e+02 -1.0179439115017885e+00 -6.0299426160891572e-16 
1.0567428219475369e+02 -1.0179439115017885e+00 -6.0299426160891572e-16 
1.0724029086989867e+02 -2.4873093772748689e-01 9.2482001538318821e-14 
1.0567428219475369e+02 -1.0179439115017885e+00 -6.0299426160891572e-16 
1.1493292636088245e+02 7.3297975233253965e-01 -1.9743414053575513e-13 
1.1493292636088245e+02 7.3297975233253965e-01 -1.9743414053575513e-13 
1.1570528904366529e+02 4.0049894597905222e-01 -1.5583739011369119e-13 
1.1570528904366529e+02 4.0049894597905222e-01 -1.5583739011369119e-13 
1.1493292636088245e+02 7.3297975233253965e-01 -1.9743414053575513e-13 
1.1570528904366529e+02 4.0049894597905222e-01 -1.5583739011369119e-13 
1.1083438656290218e+02 6.8812733369213674e-01 2.4471663686273395e-13 
1.1083438656290218e+02 6.8812733369213674e-01 2.4471663686273395e-13 
1.0887269297464991e+02 3.7567941620091005e-01 1.8938777231254289e-13 
1.0887269297464991e+02 3.7567941620091005e-01 1.8938777231254289e-13 
1.1083438656290218e+02 6.8812733369213674e-01 2.4471663686273395e-13 
1.0887269297464991e+02 3.7567941620091005e-01 1.8938777231254289e-13 
1.1320582136751182e+02 7.4894625860360975e-01 -2.2767140661279885e-13 
1.1320582136751182e+02 7.4894625860360975e-01 -2.2767140661279885e-13 
1.1412708553234188e+02 8.0736839848941599e-01 -2.3368216975779367e-13 
1.1412708553234188e+02 8.0736839848941599e-01 -2.3368216975779367e-13 
1.1320582136751182e+02 7.4894625860360975e-01 -2.2767140661279885e-13 
1.1412708553234188e+02 8.0736839848941599e-01 -2.3368216975779367e-13 
1.1529912946886452e+02 7.5884564126408804e-01 2.4975544766544280e-13 
1.1529912946886452e+02 7.5884564126408804e-01 2.4975544766544280e-13 
1.1294579759149110e+02 7.8986713949598197e-01 2.6763558385819855e-13 
1.1294579759149110e+02 7.8986713949598197e-01 2.6763558385819855e-13 
1.1529912946886452e+02 7.5884564126408804e-01 2.4975544766544280e-13 
1.1294579759149110e+02 7.8986713949598197e-01 2.6763558385819855e-13 
1.1095900898148921e+02 4.9100586991062301e-01 -9.5867832026485745e-14 
1.1095900898148921e+02 4.9100586991062301e-01 -9.5867832026485745e-14 
1.1209192278342107e+02 6.3247660639808601e-01 -1.6689662597164288e-13 
1.1209192278342107e+02 6.3247660639808601e-01 -1.6689662597164288e-13 
1.1095900898148921e+02 4.9100586991062301e-01 -9.5867832026485745e-14 
1.1209192278342107e+02 6.3247660639808601e-01 -1.6689662597164288e-13 
1.2084301830134518e+02 5.3419711020978866e-01 1.4230972366704718e-13 
1.2084301830134518e+02 5.3419711020978866e-01 1.4230972366704718e-13 
1.1798577101518549e+02 6.4569391131044540e-01 1.9252387536700756e-13 
1.1798577101518549e+02 6.4569391131044540e-01 1.9252387536700756e-13 
1.2084301830134518e+02 5.3419711020978866e-01 1.4230972366704718e-13 
1.1798577101518549e+02 6.4569391131044540e-01 1.9252387536700756e-13 
1.0806707452120372e+02 3.0778552037372719e-01 1.1143396638639535e-14 
1.0806707452120372e+02 3.0778552037372719e-01 1.1143396638639535e-14 
1.0953605194748343e+02 3.8537198598987743e-01 -3.7272568247262373e-14 
1.0953605194748343e+02 3.8537198598987743e-01 -3.7272568247262373e-14 
1.0806707452120372e+02 3.0778552037372719e-01 1.1143396638639535e-14 
1.0953605194748343e+02 3.8537198598987743e-01 -3.7272568247262373e-14 
1.2779647487580769e+02 3.3101175287356455e-01 1.2449204071020473e-13 
1.2779647487580769e+02 3.3101175287356455e-01 1.2449204071020473e-13 
1.2420654345510866e+02 4.0285468448291795e-01 1.3046966065912949e-13 
1.2420654345510866e+02 4.0285468448291795e-01 1.3046966065912949e-13 
1.2779647487580769e+02 3.3101175287356455e-01 1.2449204071020473e-13 
1.2420654345510866e+02 4.0285468448291795e-01 1.3046966065912949e-13 
1.0448590813556621e+02 2.4977692736774770e-01 5.0416115811620691e-14 
1.0448590813556621e+02 2.4977692736774770e-01 5.0416115811620691e-14 
1.0637665863454367e+02 2.6000909631693503e-01 3.9851456912902371e-14 
1.0637665863454367e+02 2.6000909631693503e-01 3.9851456912902371e-14 
1.0448590813556621e+02 2.4977692736774770e-01 5.0416115811620691e-14 
1.0637665863454367e+02 2.6000909631693503e-01 3.9851456912902371e-14 
1.3631001244223989e+02 2.3803133824139877e-01 4.9308342704125407e-14 
1.3631001244223989e+02 2.3803133824139877e-01 4.9308342704125407e-14 
1.3185397214284603e+02 2.6406413669246831e-01 9.3845134129441830e-14 
1.3185397214284603e+02 2.6406413669246831e-01 9.3845134129441830e-14 
1.3631001244223989e+02 2.3803133824139877e-01 4.9308342704125407e-14 
1.3185397214284603e+02 2.6406413669246831e-01 9.3845134129441830e-14 
1.0004959134684668e+02 2.9534921622962429e-01 -6.8700662443364259e-15 
1.0004959134684668e+02 2.9534921622962429e-01 -6.8700662443364259e-15 
1.0243750882234053e+02 2.6671942141547333e-01 3.9351973974230365e-14 
1.0243750882234053e+02 2.6671942141547333e-01 3.9351973974230365e-14 
1.0004959134684668e+02 2.9534921622962429e-01 -6.8700662443364259e-15 
1.0243750882234053e+02 2.6671942141547333e-01 3.9351973974230365e-14 
1.4631133392314132e+02 3.0728683376764820e-01 1.1870205039018475e-13 
1.4631133392314132e+02 3.0728683376764820e-01 1.1870205039018475e-13 
1.4107078542466616e+02 2.7471804458946281e-01 4.3190332323301105e-14 
1.4107078542466616e+02 2.7471804458946281e-01 4.3190332323301105e-14 
1.4631133392314132e+02 3.0728683376764820e-01 1.1870205039018475e-13 
1.4107078542466616e+02 2.7471804458946281e-01 4.3190332323301105e-14 
9.4329447404916209e+01 5.4867806626452875e-01 -8.7022980605801262e-14 
9.4329447404916209e+01 5.4867806626452875e-01 -8.7022980605801262e-14 
9.7386049744831780e+01 3.9364150747587701e-01 -5.5275775957842966e-14 
9.7386049744831780e+01 3.9364150747587701e-01 -5.5275775957842966e-14 
9.4329447404916209e+01 5.4867806626452875e-01 -8.7022980605801262e-14 
9.7386049744831780e+01 3.9364150747587701e-01 -5.5275775957842966e-14 
1.5709648643969877e+02 6.4297515196676613e-01 2.9363103793613100e-13 
1.5709648643969877e+02 6.4297515196676613e-01 2.9363103793613100e-13 
1.5164865668048060e+02 4.6843921780418896e-01 2.1411571470204148e-13 
1.5164865668048060e+02 4.6843921780418896e-01 2.1411571470204148e-13 
1.5709648643969877e+02 6.4297515196676613e-01 2.9363103793613100e-13 
1.5164865668048060e+02 4.6843921780418896e-01 2.1411571470204148e-13 
8.6576463105305265e+01 2.0968518325980767e-01 -1.1916832092993941e-13 
8.6576463105305265e+01 2.0968518325980767e-01 -1.1916832092993941e-13 
9.0734528333778144e+01 6.6179952624770522e-01 -1.1063206843950847e-13 
9.0734528333778144e+01 6.6179952624770522e-01 -1.1063206843950847e-13 
8.6576463105305265e+01 2.0968518325980767e-01 -1.1916832092993941e-13 
9.0734528333778144e+01 6.6179952624770522e-01 -1.1063206843950847e-13 
1.6756788271537584e+02 5.9095984067357676e-01 3.1981917828195023e-13 
1.6756788271537584e+02 5.9095984067357676e-01 3.1981917828195023e-13 
1.6243899172299507e+02 8.3448784631673334e-01 3.4439064404755609e-13 
1.6243899172299507e+02 8.3448784631673334e-01 3.4439064404755609e-13 
1.6756788271537584e+02 5.9095984067357676e-01 3.1981917828195023e-13 
1.6243899172299507e+02 8.3448784631673334e-01 3.4439064404755609e-13 
7.5447096227625025e+01 5.8153137970248281e-01 -5.3713461466740909e-14 
7.5447096227625025e+01 5.8153137970248281e-01 -5.3713461466740909e-14 
8.1631954852914532e+01 -5.2484878900645526e-01 -1.0078733191907874e-13 
8.1631954852914532e+01 -5.2484878900645526e-01 -1.0078733191907874e-13 
7.5447096227625025e+01 5.8153137970248281e-01 -5.3713461466740909e-14 
8.1631954852914532e+01 -5.2484878900600052e-01 -1.0078733191907874e-13 
1.7493925868682254e+02 1.0256417680857339e+00 1.4521743041612560e-13 
1.7493925868682254e+02 1.0256417680857339e+00 1.4521743041612560e-13 
1.7212752664463392e+02 1.0143887392177930e-01 2.1911304850946457e-13 
1.7212752664463392e+02 1.0143887392177930e-01 2.1911304850946457e-13 
1.7493925868682254e+02 1.0256417680857339e+00 1.4521743041612560e-13 
1.7212752664463460e+02 1.0143887392200668e-01 2.1911304850946093e-13 
5.8602154284405060e+01 6.0451361479538264e+00 1.4855742603770783e-13 
5.8602154284405060e+01 6.0451361479538264e+00 1.4855742603770783e-13 
6.8053722072698065e+01 5.7907011207112191e+00 4.2179056758915186e-14 
6.8053722072698065e+01 5.7907011207112191e+00 4.2179056758915186e-14 
5.8602154284405060e+01 6.0451361479538264e+00 1.4855742603770783e-13 
6.8053722072698065e+01 5.7907011207112191e+00 4.2179056758915186e-14 
1.7463451070079634e+02 4.8472351359250752e+00 2.5236500119823979e-13 
1.7463451070079634e+02 4.8472351359250752e+00 2.5236500119823979e-13 
1.7433419675860091e+02 4.7231742614771974e+00 1.8084888786026861e-13 
1.7433419675860091e+02 4.7231742614771974e+00 1.8084888786026861e-13 
1.7463451070079634e+02 4.8472351359250752e+00 2.5236500119823979e-13 
1.7433419675860091e+02 4.7231742614771974e+00 1.8084888786026861e-13 
2.8589135937186711e+01 -4.3011539220609961e+01 2.2507849898039168e-13 
2.8589135937186711e+01 -4.3011539220609961e+01 2.2507849898039168e-13 
4.6252638951588551e+01 -2.1252863589418666e+01 2.1638965884603653e-13 
4.6252638951588551e+01 -2.1252863589418666e+01 2.1638965884603653e-13 
2.8589135937186711e+01 -4.3011539220609961e+01 2.2507849898039168e-13 
4.6252638951588779e+01 -2.1252863589418894e+01 2.1638965884603714e-13 
1.9454904462355415e+02 -2.8786735799072176e+01 3.0356976539970693e-13 
1.9454904462355415e+02 -2.8786735799072176e+01 3.0356976539970693e-13 
1.8654033830332290e+02 -1.4471024346908905e+01 3.0348715119299864e-13 
1.8654033830332290e+02 -1.4471024346908905e+01 3.0348715119299864e-13 
1.9454904462355415e+02 -2.8786735799072176e+01 3.0356976539970693e-13 
1.8654033830332284e+02 -1.4471024346909360e+01 3.0348715119299596e-13 
-1.4847608397757313e+01 2.4252064706914416e+02 8.7695379140381345e-15 
1.2580879807363772e+00 2.7369622567262809e+02 1.4845507962856499e-16 
-1.4847608397757313e+01 2.4252064706914416e+02 8.7695379140381345e-15 
1.2580879807363772e+00 2.7369622567262809e+02 1.4845507962856499e-16 
7.5640056885304148e+00 3.3081383565535361e+01 1.5760703101581183e-13 
-1.5262611381783699e+00 2.7838765108323219e+02 1.1786586190533854e-17 
7.5640056885304148e+00 3.3081383565535361e+01 1.5760703101581183e-13 
-1.5262611381783699e+00 2.7838765108323219e+02 1.1786586190533854e-17 
-1.4847608397757313e+01 2.4252064706914416e+02 8.7695379140381345e-15 
1.2580879807363772e+00 2.7369622567262809e+02 1.4845507962856499e-16 
7.5640056885304148e+00 3.3081383565535361e+01 1.5760703101581183e-13 
-1.5262611381783699e+00 2.7838765108323219e+02 1.1786586190533854e-17 
-5.4652330721750673e+00 2.2695345285520563e+02 -5.3762294850323665e-15 
-5.4652330721750673e+00 2.2695345285520563e+02 -5.3762294850323665e-15 
-7.9530875586772254e-01 2.5260326346094394e+02 8.0234111038073280e-17 
-7.9530875586772254e-01 2.5260326346094394e+02 8.0234111038073280e-17 
-5.4652330721750673e+00 2.2695345285520563e+02 -5.3762294850323665e-15 
-7.9530875586772254e-01 2.5260326346094394e+02 8.0234111038073280e-17 
3.3474332104826260e+01 1.6199950337717939e+02 4.1862468213610477e-14 
3.3474332104826260e+01 1.6199950337717939e+02 4.1862468213610477e-14 
1.4984178384886138e+02 2.1562726799972552e+01 2.1755707224642970e-13 
-7.3442557241168061e-01 1.9758291823557823e+02 8.8610732273085680e-17 
1.4984178384886138e+02 2.1562726799972552e+01 2.1755707224642970e-13 
-7.3442557241168061e-01 1.9758291823557823e+02 8.8610732273085680e-17 
3.3474332104826260e+01 1.6199950337717939e+02 4.1862468213610477e-14 
1.4984178384886138e+02 2.1562726799972552e+01 2.1755707224642970e-13 
-7.3442557241162376e-01 1.9758291823557829e+02 8.8610732274095422e-17 

