# vtk DataFile Version 2.0

ASCII

DATASET UNSTRUCTURED_GRID

POINTS 237 float 

-5.0000000000000003e-02  0.0000000000000000e+00  0.0000000000000000e+00
-5.0000000000000003e-02  5.5555555555555552e-02  0.0000000000000000e+00
-5.0000000000000003e-02  0.0000000000000000e+00  2.9999999999999999e-01
-5.0000000000000003e-02  5.5555555555555552e-02  2.9999999999999999e-01
-5.0000000000000003e-02  2.7777777777777776e-02  0.0000000000000000e+00
-5.0000000000000003e-02  2.7777777777777776e-02  2.9999999999999999e-01
-5.0000000000000003e-02  0.0000000000000000e+00  1.4999999999999999e-01
-5.0000000000000003e-02  5.5555555555555552e-02  1.4999999999999999e-01
-5.0000000000000003e-02  2.7777777777777776e-02  1.4999999999999999e-01
5.0000000000000003e-02  0.0000000000000000e+00  0.0000000000000000e+00
5.0000000000000003e-02  5.5555555555555552e-02  0.0000000000000000e+00
5.0000000000000003e-02  0.0000000000000000e+00  2.9999999999999999e-01
5.0000000000000003e-02  5.5555555555555552e-02  2.9999999999999999e-01
5.0000000000000003e-02  2.7777777777777776e-02  0.0000000000000000e+00
5.0000000000000003e-02  2.7777777777777776e-02  2.9999999999999999e-01
5.0000000000000003e-02  0.0000000000000000e+00  1.4999999999999999e-01
5.0000000000000003e-02  5.5555555555555552e-02  1.4999999999999999e-01
5.0000000000000003e-02  2.7777777777777776e-02  1.4999999999999999e-01
-5.0000000000000003e-02  1.1111111111111110e-01  0.0000000000000000e+00
-5.0000000000000003e-02  1.1111111111111110e-01  2.9999999999999999e-01
-5.0000000000000003e-02  8.3333333333333329e-02  0.0000000000000000e+00
-5.0000000000000003e-02  8.3333333333333329e-02  2.9999999999999999e-01
-5.0000000000000003e-02  1.1111111111111110e-01  1.4999999999999999e-01
-5.0000000000000003e-02  8.3333333333333329e-02  1.4999999999999999e-01
5.0000000000000003e-02  1.1111111111111110e-01  0.0000000000000000e+00
5.0000000000000003e-02  1.1111111111111110e-01  2.9999999999999999e-01
5.0000000000000003e-02  8.3333333333333329e-02  0.0000000000000000e+00
5.0000000000000003e-02  8.3333333333333329e-02  2.9999999999999999e-01
5.0000000000000003e-02  1.1111111111111110e-01  1.4999999999999999e-01
5.0000000000000003e-02  8.3333333333333329e-02  1.4999999999999999e-01
-5.0000000000000003e-02  1.6666666666666666e-01  0.0000000000000000e+00
-5.0000000000000003e-02  1.6666666666666666e-01  2.9999999999999999e-01
-5.0000000000000003e-02  1.3888888888888890e-01  0.0000000000000000e+00
-5.0000000000000003e-02  1.3888888888888890e-01  2.9999999999999999e-01
-5.0000000000000003e-02  1.6666666666666666e-01  1.4999999999999999e-01
-5.0000000000000003e-02  1.3888888888888890e-01  1.4999999999999999e-01
5.0000000000000003e-02  1.6666666666666666e-01  0.0000000000000000e+00
5.0000000000000003e-02  1.6666666666666666e-01  2.9999999999999999e-01
5.0000000000000003e-02  1.3888888888888890e-01  0.0000000000000000e+00
5.0000000000000003e-02  1.3888888888888890e-01  2.9999999999999999e-01
5.0000000000000003e-02  1.6666666666666666e-01  1.4999999999999999e-01
5.0000000000000003e-02  1.3888888888888890e-01  1.4999999999999999e-01
-5.0000000000000003e-02  2.2222222222222221e-01  0.0000000000000000e+00
-5.0000000000000003e-02  2.2222222222222221e-01  2.9999999999999999e-01
-5.0000000000000003e-02  1.9444444444444442e-01  0.0000000000000000e+00
-5.0000000000000003e-02  1.9444444444444442e-01  2.9999999999999999e-01
-5.0000000000000003e-02  2.2222222222222221e-01  1.4999999999999999e-01
-5.0000000000000003e-02  1.9444444444444442e-01  1.4999999999999999e-01
5.0000000000000003e-02  2.2222222222222221e-01  0.0000000000000000e+00
5.0000000000000003e-02  2.2222222222222221e-01  2.9999999999999999e-01
5.0000000000000003e-02  1.9444444444444442e-01  0.0000000000000000e+00
5.0000000000000003e-02  1.9444444444444442e-01  2.9999999999999999e-01
5.0000000000000003e-02  2.2222222222222221e-01  1.4999999999999999e-01
5.0000000000000003e-02  1.9444444444444442e-01  1.4999999999999999e-01
-5.0000000000000003e-02  2.7777777777777779e-01  0.0000000000000000e+00
-5.0000000000000003e-02  2.7777777777777779e-01  2.9999999999999999e-01
-5.0000000000000003e-02  2.5000000000000000e-01  0.0000000000000000e+00
-5.0000000000000003e-02  2.5000000000000000e-01  2.9999999999999999e-01
-5.0000000000000003e-02  2.7777777777777779e-01  1.4999999999999999e-01
-5.0000000000000003e-02  2.5000000000000000e-01  1.4999999999999999e-01
5.0000000000000003e-02  2.7777777777777779e-01  0.0000000000000000e+00
5.0000000000000003e-02  2.7777777777777779e-01  2.9999999999999999e-01
5.0000000000000003e-02  2.5000000000000000e-01  0.0000000000000000e+00
5.0000000000000003e-02  2.5000000000000000e-01  2.9999999999999999e-01
5.0000000000000003e-02  2.7777777777777779e-01  1.4999999999999999e-01
5.0000000000000003e-02  2.5000000000000000e-01  1.4999999999999999e-01
-5.0000000000000003e-02  3.3333333333333331e-01  0.0000000000000000e+00
-5.0000000000000003e-02  3.3333333333333331e-01  2.9999999999999999e-01
-5.0000000000000003e-02  3.0555555555555558e-01  0.0000000000000000e+00
-5.0000000000000003e-02  3.0555555555555558e-01  2.9999999999999999e-01
-5.0000000000000003e-02  3.3333333333333331e-01  1.4999999999999999e-01
-5.0000000000000003e-02  3.0555555555555558e-01  1.4999999999999999e-01
5.0000000000000003e-02  3.3333333333333331e-01  0.0000000000000000e+00
5.0000000000000003e-02  3.3333333333333331e-01  2.9999999999999999e-01
5.0000000000000003e-02  3.0555555555555558e-01  0.0000000000000000e+00
5.0000000000000003e-02  3.0555555555555558e-01  2.9999999999999999e-01
5.0000000000000003e-02  3.3333333333333331e-01  1.4999999999999999e-01
5.0000000000000003e-02  3.0555555555555558e-01  1.4999999999999999e-01
-5.0000000000000003e-02  3.8888888888888884e-01  0.0000000000000000e+00
-5.0000000000000003e-02  3.8888888888888884e-01  2.9999999999999999e-01
-5.0000000000000003e-02  3.6111111111111105e-01  0.0000000000000000e+00
-5.0000000000000003e-02  3.6111111111111105e-01  2.9999999999999999e-01
-5.0000000000000003e-02  3.8888888888888884e-01  1.4999999999999999e-01
-5.0000000000000003e-02  3.6111111111111105e-01  1.4999999999999999e-01
5.0000000000000003e-02  3.8888888888888884e-01  0.0000000000000000e+00
5.0000000000000003e-02  3.8888888888888884e-01  2.9999999999999999e-01
5.0000000000000003e-02  3.6111111111111105e-01  0.0000000000000000e+00
5.0000000000000003e-02  3.6111111111111105e-01  2.9999999999999999e-01
5.0000000000000003e-02  3.8888888888888884e-01  1.4999999999999999e-01
5.0000000000000003e-02  3.6111111111111105e-01  1.4999999999999999e-01
-5.0000000000000003e-02  4.4444444444444442e-01  0.0000000000000000e+00
-5.0000000000000003e-02  4.4444444444444442e-01  2.9999999999999999e-01
-5.0000000000000003e-02  4.1666666666666663e-01  0.0000000000000000e+00
-5.0000000000000003e-02  4.1666666666666663e-01  2.9999999999999999e-01
-5.0000000000000003e-02  4.4444444444444442e-01  1.4999999999999999e-01
-5.0000000000000003e-02  4.1666666666666663e-01  1.4999999999999999e-01
5.0000000000000003e-02  4.4444444444444442e-01  0.0000000000000000e+00
5.0000000000000003e-02  4.4444444444444442e-01  2.9999999999999999e-01
5.0000000000000003e-02  4.1666666666666663e-01  0.0000000000000000e+00
5.0000000000000003e-02  4.1666666666666663e-01  2.9999999999999999e-01
5.0000000000000003e-02  4.4444444444444442e-01  1.4999999999999999e-01
5.0000000000000003e-02  4.1666666666666663e-01  1.4999999999999999e-01
-5.0000000000000003e-02  5.0000000000000000e-01  0.0000000000000000e+00
-5.0000000000000003e-02  5.0000000000000000e-01  2.9999999999999999e-01
-5.0000000000000003e-02  4.7222222222222221e-01  0.0000000000000000e+00
-5.0000000000000003e-02  4.7222222222222221e-01  2.9999999999999999e-01
-5.0000000000000003e-02  5.0000000000000000e-01  1.4999999999999999e-01
-5.0000000000000003e-02  4.7222222222222221e-01  1.4999999999999999e-01
5.0000000000000003e-02  5.0000000000000000e-01  0.0000000000000000e+00
5.0000000000000003e-02  5.0000000000000000e-01  2.9999999999999999e-01
5.0000000000000003e-02  4.7222222222222221e-01  0.0000000000000000e+00
5.0000000000000003e-02  4.7222222222222221e-01  2.9999999999999999e-01
5.0000000000000003e-02  5.0000000000000000e-01  1.4999999999999999e-01
5.0000000000000003e-02  4.7222222222222221e-01  1.4999999999999999e-01
-5.0000000000000003e-02  5.5555555555555558e-01  0.0000000000000000e+00
-5.0000000000000003e-02  5.5555555555555558e-01  2.9999999999999999e-01
-5.0000000000000003e-02  5.2777777777777779e-01  0.0000000000000000e+00
-5.0000000000000003e-02  5.2777777777777779e-01  2.9999999999999999e-01
-5.0000000000000003e-02  5.5555555555555558e-01  1.4999999999999999e-01
-5.0000000000000003e-02  5.2777777777777779e-01  1.4999999999999999e-01
5.0000000000000003e-02  5.5555555555555558e-01  0.0000000000000000e+00
5.0000000000000003e-02  5.5555555555555558e-01  2.9999999999999999e-01
5.0000000000000003e-02  5.2777777777777779e-01  0.0000000000000000e+00
5.0000000000000003e-02  5.2777777777777779e-01  2.9999999999999999e-01
5.0000000000000003e-02  5.5555555555555558e-01  1.4999999999999999e-01
5.0000000000000003e-02  5.2777777777777779e-01  1.4999999999999999e-01
-5.0000000000000003e-02  6.1111111111111105e-01  0.0000000000000000e+00
-5.0000000000000003e-02  6.1111111111111105e-01  2.9999999999999999e-01
-5.0000000000000003e-02  5.8333333333333326e-01  0.0000000000000000e+00
-5.0000000000000003e-02  5.8333333333333326e-01  2.9999999999999999e-01
-5.0000000000000003e-02  6.1111111111111105e-01  1.4999999999999999e-01
-5.0000000000000003e-02  5.8333333333333326e-01  1.4999999999999999e-01
5.0000000000000003e-02  6.1111111111111105e-01  0.0000000000000000e+00
5.0000000000000003e-02  6.1111111111111105e-01  2.9999999999999999e-01
5.0000000000000003e-02  5.8333333333333326e-01  0.0000000000000000e+00
5.0000000000000003e-02  5.8333333333333326e-01  2.9999999999999999e-01
5.0000000000000003e-02  6.1111111111111105e-01  1.4999999999999999e-01
5.0000000000000003e-02  5.8333333333333326e-01  1.4999999999999999e-01
-5.0000000000000003e-02  6.6666666666666663e-01  0.0000000000000000e+00
-5.0000000000000003e-02  6.6666666666666663e-01  2.9999999999999999e-01
-5.0000000000000003e-02  6.3888888888888884e-01  0.0000000000000000e+00
-5.0000000000000003e-02  6.3888888888888884e-01  2.9999999999999999e-01
-5.0000000000000003e-02  6.6666666666666663e-01  1.4999999999999999e-01
-5.0000000000000003e-02  6.3888888888888884e-01  1.4999999999999999e-01
5.0000000000000003e-02  6.6666666666666663e-01  0.0000000000000000e+00
5.0000000000000003e-02  6.6666666666666663e-01  2.9999999999999999e-01
5.0000000000000003e-02  6.3888888888888884e-01  0.0000000000000000e+00
5.0000000000000003e-02  6.3888888888888884e-01  2.9999999999999999e-01
5.0000000000000003e-02  6.6666666666666663e-01  1.4999999999999999e-01
5.0000000000000003e-02  6.3888888888888884e-01  1.4999999999999999e-01
-5.0000000000000003e-02  7.2222222222222221e-01  0.0000000000000000e+00
-5.0000000000000003e-02  7.2222222222222221e-01  2.9999999999999999e-01
-5.0000000000000003e-02  6.9444444444444442e-01  0.0000000000000000e+00
-5.0000000000000003e-02  6.9444444444444442e-01  2.9999999999999999e-01
-5.0000000000000003e-02  7.2222222222222221e-01  1.4999999999999999e-01
-5.0000000000000003e-02  6.9444444444444442e-01  1.4999999999999999e-01
5.0000000000000003e-02  7.2222222222222221e-01  0.0000000000000000e+00
5.0000000000000003e-02  7.2222222222222221e-01  2.9999999999999999e-01
5.0000000000000003e-02  6.9444444444444442e-01  0.0000000000000000e+00
5.0000000000000003e-02  6.9444444444444442e-01  2.9999999999999999e-01
5.0000000000000003e-02  7.2222222222222221e-01  1.4999999999999999e-01
5.0000000000000003e-02  6.9444444444444442e-01  1.4999999999999999e-01
-5.0000000000000003e-02  7.7777777777777768e-01  0.0000000000000000e+00
-5.0000000000000003e-02  7.7777777777777768e-01  2.9999999999999999e-01
-5.0000000000000003e-02  7.5000000000000000e-01  0.0000000000000000e+00
-5.0000000000000003e-02  7.5000000000000000e-01  2.9999999999999999e-01
-5.0000000000000003e-02  7.7777777777777768e-01  1.4999999999999999e-01
-5.0000000000000003e-02  7.5000000000000000e-01  1.4999999999999999e-01
5.0000000000000003e-02  7.7777777777777768e-01  0.0000000000000000e+00
5.0000000000000003e-02  7.7777777777777768e-01  2.9999999999999999e-01
5.0000000000000003e-02  7.5000000000000000e-01  0.0000000000000000e+00
5.0000000000000003e-02  7.5000000000000000e-01  2.9999999999999999e-01
5.0000000000000003e-02  7.7777777777777768e-01  1.4999999999999999e-01
5.0000000000000003e-02  7.5000000000000000e-01  1.4999999999999999e-01
-5.0000000000000003e-02  8.3333333333333326e-01  0.0000000000000000e+00
-5.0000000000000003e-02  8.3333333333333326e-01  2.9999999999999999e-01
-5.0000000000000003e-02  8.0555555555555547e-01  0.0000000000000000e+00
-5.0000000000000003e-02  8.0555555555555547e-01  2.9999999999999999e-01
-5.0000000000000003e-02  8.3333333333333326e-01  1.4999999999999999e-01
-5.0000000000000003e-02  8.0555555555555536e-01  1.4999999999999999e-01
5.0000000000000003e-02  8.3333333333333326e-01  0.0000000000000000e+00
5.0000000000000003e-02  8.3333333333333326e-01  2.9999999999999999e-01
5.0000000000000003e-02  8.0555555555555547e-01  0.0000000000000000e+00
5.0000000000000003e-02  8.0555555555555547e-01  2.9999999999999999e-01
5.0000000000000003e-02  8.3333333333333326e-01  1.4999999999999999e-01
5.0000000000000003e-02  8.0555555555555536e-01  1.4999999999999999e-01
-5.0000000000000003e-02  8.8888888888888884e-01  0.0000000000000000e+00
-5.0000000000000003e-02  8.8888888888888884e-01  2.9999999999999999e-01
-5.0000000000000003e-02  8.6111111111111105e-01  0.0000000000000000e+00
-5.0000000000000003e-02  8.6111111111111105e-01  2.9999999999999999e-01
-5.0000000000000003e-02  8.8888888888888884e-01  1.4999999999999999e-01
-5.0000000000000003e-02  8.6111111111111105e-01  1.4999999999999999e-01
5.0000000000000003e-02  8.8888888888888884e-01  0.0000000000000000e+00
5.0000000000000003e-02  8.8888888888888884e-01  2.9999999999999999e-01
5.0000000000000003e-02  8.6111111111111105e-01  0.0000000000000000e+00
5.0000000000000003e-02  8.6111111111111105e-01  2.9999999999999999e-01
5.0000000000000003e-02  8.8888888888888884e-01  1.4999999999999999e-01
5.0000000000000003e-02  8.6111111111111105e-01  1.4999999999999999e-01
-5.0000000000000003e-02  9.4444444444444442e-01  0.0000000000000000e+00
-5.0000000000000003e-02  9.4444444444444442e-01  2.9999999999999999e-01
-5.0000000000000003e-02  9.1666666666666663e-01  0.0000000000000000e+00
-5.0000000000000003e-02  9.1666666666666663e-01  2.9999999999999999e-01
-5.0000000000000003e-02  9.4444444444444442e-01  1.4999999999999999e-01
-5.0000000000000003e-02  9.1666666666666674e-01  1.4999999999999999e-01
5.0000000000000003e-02  9.4444444444444442e-01  0.0000000000000000e+00
5.0000000000000003e-02  9.4444444444444442e-01  2.9999999999999999e-01
5.0000000000000003e-02  9.1666666666666663e-01  0.0000000000000000e+00
5.0000000000000003e-02  9.1666666666666663e-01  2.9999999999999999e-01
5.0000000000000003e-02  9.4444444444444442e-01  1.4999999999999999e-01
5.0000000000000003e-02  9.1666666666666674e-01  1.4999999999999999e-01
-5.0000000000000003e-02  1.0000000000000000e+00  0.0000000000000000e+00
-1.6666666666666670e-02  1.0000000000000000e+00  0.0000000000000000e+00
-5.0000000000000003e-02  1.0000000000000000e+00  2.9999999999999999e-01
-1.6666666666666670e-02  1.0000000000000000e+00  2.9999999999999999e-01
-5.0000000000000003e-02  9.7222222222222221e-01  0.0000000000000000e+00
-3.3333333333333340e-02  1.0000000000000000e+00  0.0000000000000000e+00
-5.0000000000000003e-02  9.7222222222222221e-01  2.9999999999999999e-01
-3.3333333333333340e-02  1.0000000000000000e+00  2.9999999999999999e-01
-5.0000000000000003e-02  1.0000000000000000e+00  1.4999999999999999e-01
-1.6666666666666670e-02  1.0000000000000000e+00  1.4999999999999999e-01
-5.0000000000000003e-02  9.7222222222222221e-01  1.4999999999999999e-01
-3.3333333333333340e-02  1.0000000000000000e+00  1.4999999999999999e-01
1.6666666666666663e-02  1.0000000000000000e+00  0.0000000000000000e+00
1.6666666666666663e-02  1.0000000000000000e+00  2.9999999999999999e-01
-3.4694469519536142e-18  1.0000000000000000e+00  0.0000000000000000e+00
-3.4694469519536142e-18  1.0000000000000000e+00  2.9999999999999999e-01
1.6666666666666663e-02  1.0000000000000000e+00  1.4999999999999999e-01
-3.4694469519536142e-18  1.0000000000000000e+00  1.4999999999999999e-01
5.0000000000000003e-02  1.0000000000000000e+00  0.0000000000000000e+00
5.0000000000000003e-02  1.0000000000000000e+00  2.9999999999999999e-01
5.0000000000000003e-02  9.7222222222222221e-01  0.0000000000000000e+00
3.3333333333333333e-02  1.0000000000000000e+00  0.0000000000000000e+00
5.0000000000000003e-02  9.7222222222222221e-01  2.9999999999999999e-01
3.3333333333333333e-02  1.0000000000000000e+00  2.9999999999999999e-01
5.0000000000000003e-02  1.0000000000000000e+00  1.4999999999999999e-01
5.0000000000000003e-02  9.7222222222222221e-01  1.4999999999999999e-01
3.3333333333333333e-02  1.0000000000000000e+00  1.4999999999999999e-01

CELLS 0 0


CELL_TYPES 0


POINT_DATA 237

VECTORS VertexNormals float

0.0000000000000000e+00 0.0000000000000000e+00 0.0000000000000000e+00 
0.0000000000000000e+00 0.0000000000000000e+00 0.0000000000000000e+00 
0.0000000000000000e+00 0.0000000000000000e+00 0.0000000000000000e+00 
0.0000000000000000e+00 0.0000000000000000e+00 0.0000000000000000e+00 
0.0000000000000000e+00 0.0000000000000000e+00 0.0000000000000000e+00 
0.0000000000000000e+00 0.0000000000000000e+00 0.0000000000000000e+00 
0.0000000000000000e+00 0.0000000000000000e+00 0.0000000000000000e+00 
0.0000000000000000e+00 0.0000000000000000e+00 0.0000000000000000e+00 
0.0000000000000000e+00 0.0000000000000000e+00 0.0000000000000000e+00 
0.0000000000000000e+00 0.0000000000000000e+00 0.0000000000000000e+00 
0.0000000000000000e+00 0.0000000000000000e+00 0.0000000000000000e+00 
0.0000000000000000e+00 0.0000000000000000e+00 0.0000000000000000e+00 
0.0000000000000000e+00 0.0000000000000000e+00 0.0000000000000000e+00 
0.0000000000000000e+00 0.0000000000000000e+00 0.0000000000000000e+00 
0.0000000000000000e+00 0.0000000000000000e+00 0.0000000000000000e+00 
0.0000000000000000e+00 0.0000000000000000e+00 0.0000000000000000e+00 
0.0000000000000000e+00 0.0000000000000000e+00 0.0000000000000000e+00 
0.0000000000000000e+00 0.0000000000000000e+00 0.0000000000000000e+00 
0.0000000000000000e+00 0.0000000000000000e+00 0.0000000000000000e+00 
0.0000000000000000e+00 0.0000000000000000e+00 0.0000000000000000e+00 
0.0000000000000000e+00 0.0000000000000000e+00 0.0000000000000000e+00 
0.0000000000000000e+00 0.0000000000000000e+00 0.0000000000000000e+00 
0.0000000000000000e+00 0.0000000000000000e+00 0.0000000000000000e+00 
0.0000000000000000e+00 0.0000000000000000e+00 0.0000000000000000e+00 
0.0000000000000000e+00 0.0000000000000000e+00 0.0000000000000000e+00 
0.0000000000000000e+00 0.0000000000000000e+00 0.0000000000000000e+00 
0.0000000000000000e+00 0.0000000000000000e+00 0.0000000000000000e+00 
0.0000000000000000e+00 0.0000000000000000e+00 0.0000000000000000e+00 
0.0000000000000000e+00 0.0000000000000000e+00 0.0000000000000000e+00 
0.0000000000000000e+00 0.0000000000000000e+00 0.0000000000000000e+00 
0.0000000000000000e+00 0.0000000000000000e+00 0.0000000000000000e+00 
0.0000000000000000e+00 0.0000000000000000e+00 0.0000000000000000e+00 
0.0000000000000000e+00 0.0000000000000000e+00 0.0000000000000000e+00 
0.0000000000000000e+00 0.0000000000000000e+00 0.0000000000000000e+00 
0.0000000000000000e+00 0.0000000000000000e+00 0.0000000000000000e+00 
0.0000000000000000e+00 0.0000000000000000e+00 0.0000000000000000e+00 
0.0000000000000000e+00 0.0000000000000000e+00 0.0000000000000000e+00 
0.0000000000000000e+00 0.0000000000000000e+00 0.0000000000000000e+00 
0.0000000000000000e+00 0.0000000000000000e+00 0.0000000000000000e+00 
0.0000000000000000e+00 0.0000000000000000e+00 0.0000000000000000e+00 
0.0000000000000000e+00 0.0000000000000000e+00 0.0000000000000000e+00 
0.0000000000000000e+00 0.0000000000000000e+00 0.0000000000000000e+00 
0.0000000000000000e+00 0.0000000000000000e+00 0.0000000000000000e+00 
0.0000000000000000e+00 0.0000000000000000e+00 0.0000000000000000e+00 
0.0000000000000000e+00 0.0000000000000000e+00 0.0000000000000000e+00 
0.0000000000000000e+00 0.0000000000000000e+00 0.0000000000000000e+00 
0.0000000000000000e+00 0.0000000000000000e+00 0.0000000000000000e+00 
0.0000000000000000e+00 0.0000000000000000e+00 0.0000000000000000e+00 
0.0000000000000000e+00 0.0000000000000000e+00 0.0000000000000000e+00 
0.0000000000000000e+00 0.0000000000000000e+00 0.0000000000000000e+00 
0.0000000000000000e+00 0.0000000000000000e+00 0.0000000000000000e+00 
0.0000000000000000e+00 0.0000000000000000e+00 0.0000000000000000e+00 
0.0000000000000000e+00 0.0000000000000000e+00 0.0000000000000000e+00 
0.0000000000000000e+00 0.0000000000000000e+00 0.0000000000000000e+00 
0.0000000000000000e+00 0.0000000000000000e+00 0.0000000000000000e+00 
0.0000000000000000e+00 0.0000000000000000e+00 0.0000000000000000e+00 
0.0000000000000000e+00 0.0000000000000000e+00 0.0000000000000000e+00 
0.0000000000000000e+00 0.0000000000000000e+00 0.0000000000000000e+00 
0.0000000000000000e+00 0.0000000000000000e+00 0.0000000000000000e+00 
0.0000000000000000e+00 0.0000000000000000e+00 0.0000000000000000e+00 
0.0000000000000000e+00 0.0000000000000000e+00 0.0000000000000000e+00 
0.0000000000000000e+00 0.0000000000000000e+00 0.0000000000000000e+00 
0.0000000000000000e+00 0.0000000000000000e+00 0.0000000000000000e+00 
0.0000000000000000e+00 0.0000000000000000e+00 0.0000000000000000e+00 
0.0000000000000000e+00 0.0000000000000000e+00 0.0000000000000000e+00 
0.0000000000000000e+00 0.0000000000000000e+00 0.0000000000000000e+00 
0.0000000000000000e+00 0.0000000000000000e+00 0.0000000000000000e+00 
0.0000000000000000e+00 0.0000000000000000e+00 0.0000000000000000e+00 
0.0000000000000000e+00 0.0000000000000000e+00 0.0000000000000000e+00 
0.0000000000000000e+00 0.0000000000000000e+00 0.0000000000000000e+00 
0.0000000000000000e+00 0.0000000000000000e+00 0.0000000000000000e+00 
0.0000000000000000e+00 0.0000000000000000e+00 0.0000000000000000e+00 
0.0000000000000000e+00 0.0000000000000000e+00 0.0000000000000000e+00 
0.0000000000000000e+00 0.0000000000000000e+00 0.0000000000000000e+00 
0.0000000000000000e+00 0.0000000000000000e+00 0.0000000000000000e+00 
0.0000000000000000e+00 0.0000000000000000e+00 0.0000000000000000e+00 
0.0000000000000000e+00 0.0000000000000000e+00 0.0000000000000000e+00 
0.0000000000000000e+00 0.0000000000000000e+00 0.0000000000000000e+00 
0.0000000000000000e+00 0.0000000000000000e+00 0.0000000000000000e+00 
0.0000000000000000e+00 0.0000000000000000e+00 0.0000000000000000e+00 
0.0000000000000000e+00 0.0000000000000000e+00 0.0000000000000000e+00 
0.0000000000000000e+00 0.0000000000000000e+00 0.0000000000000000e+00 
0.0000000000000000e+00 0.0000000000000000e+00 0.0000000000000000e+00 
0.0000000000000000e+00 0.0000000000000000e+00 0.0000000000000000e+00 
0.0000000000000000e+00 0.0000000000000000e+00 0.0000000000000000e+00 
0.0000000000000000e+00 0.0000000000000000e+00 0.0000000000000000e+00 
0.0000000000000000e+00 0.0000000000000000e+00 0.0000000000000000e+00 
0.0000000000000000e+00 0.0000000000000000e+00 0.0000000000000000e+00 
0.0000000000000000e+00 0.0000000000000000e+00 0.0000000000000000e+00 
0.0000000000000000e+00 0.0000000000000000e+00 0.0000000000000000e+00 
0.0000000000000000e+00 0.0000000000000000e+00 0.0000000000000000e+00 
0.0000000000000000e+00 0.0000000000000000e+00 0.0000000000000000e+00 
0.0000000000000000e+00 0.0000000000000000e+00 0.0000000000000000e+00 
0.0000000000000000e+00 0.0000000000000000e+00 0.0000000000000000e+00 
0.0000000000000000e+00 0.0000000000000000e+00 0.0000000000000000e+00 
0.0000000000000000e+00 0.0000000000000000e+00 0.0000000000000000e+00 
0.0000000000000000e+00 0.0000000000000000e+00 0.0000000000000000e+00 
0.0000000000000000e+00 0.0000000000000000e+00 0.0000000000000000e+00 
0.0000000000000000e+00 0.0000000000000000e+00 0.0000000000000000e+00 
0.0000000000000000e+00 0.0000000000000000e+00 0.0000000000000000e+00 
0.0000000000000000e+00 0.0000000000000000e+00 0.0000000000000000e+00 
0.0000000000000000e+00 0.0000000000000000e+00 0.0000000000000000e+00 
0.0000000000000000e+00 0.0000000000000000e+00 0.0000000000000000e+00 
0.0000000000000000e+00 0.0000000000000000e+00 0.0000000000000000e+00 
0.0000000000000000e+00 0.0000000000000000e+00 0.0000000000000000e+00 
0.0000000000000000e+00 0.0000000000000000e+00 0.0000000000000000e+00 
0.0000000000000000e+00 0.0000000000000000e+00 0.0000000000000000e+00 
0.0000000000000000e+00 0.0000000000000000e+00 0.0000000000000000e+00 
0.0000000000000000e+00 0.0000000000000000e+00 0.0000000000000000e+00 
0.0000000000000000e+00 0.0000000000000000e+00 0.0000000000000000e+00 
0.0000000000000000e+00 0.0000000000000000e+00 0.0000000000000000e+00 
0.0000000000000000e+00 0.0000000000000000e+00 0.0000000000000000e+00 
0.0000000000000000e+00 0.0000000000000000e+00 0.0000000000000000e+00 
0.0000000000000000e+00 0.0000000000000000e+00 0.0000000000000000e+00 
0.0000000000000000e+00 0.0000000000000000e+00 0.0000000000000000e+00 
0.0000000000000000e+00 0.0000000000000000e+00 0.0000000000000000e+00 
0.0000000000000000e+00 0.0000000000000000e+00 0.0000000000000000e+00 
0.0000000000000000e+00 0.0000000000000000e+00 0.0000000000000000e+00 
0.0000000000000000e+00 0.0000000000000000e+00 0.0000000000000000e+00 
0.0000000000000000e+00 0.0000000000000000e+00 0.0000000000000000e+00 
0.0000000000000000e+00 0.0000000000000000e+00 0.0000000000000000e+00 
0.0000000000000000e+00 0.0000000000000000e+00 0.0000000000000000e+00 
0.0000000000000000e+00 0.0000000000000000e+00 0.0000000000000000e+00 
0.0000000000000000e+00 0.0000000000000000e+00 0.0000000000000000e+00 
0.0000000000000000e+00 0.0000000000000000e+00 0.0000000000000000e+00 
0.0000000000000000e+00 0.0000000000000000e+00 0.0000000000000000e+00 
0.0000000000000000e+00 0.0000000000000000e+00 0.0000000000000000e+00 
0.0000000000000000e+00 0.0000000000000000e+00 0.0000000000000000e+00 
0.0000000000000000e+00 0.0000000000000000e+00 0.0000000000000000e+00 
0.0000000000000000e+00 0.0000000000000000e+00 0.0000000000000000e+00 
0.0000000000000000e+00 0.0000000000000000e+00 0.0000000000000000e+00 
0.0000000000000000e+00 0.0000000000000000e+00 0.0000000000000000e+00 
0.0000000000000000e+00 0.0000000000000000e+00 0.0000000000000000e+00 
0.0000000000000000e+00 0.0000000000000000e+00 0.0000000000000000e+00 
0.0000000000000000e+00 0.0000000000000000e+00 0.0000000000000000e+00 
0.0000000000000000e+00 0.0000000000000000e+00 0.0000000000000000e+00 
0.0000000000000000e+00 0.0000000000000000e+00 0.0000000000000000e+00 
0.0000000000000000e+00 0.0000000000000000e+00 0.0000000000000000e+00 
0.0000000000000000e+00 0.0000000000000000e+00 0.0000000000000000e+00 
0.0000000000000000e+00 0.0000000000000000e+00 0.0000000000000000e+00 
0.0000000000000000e+00 0.0000000000000000e+00 0.0000000000000000e+00 
0.0000000000000000e+00 0.0000000000000000e+00 0.0000000000000000e+00 
0.0000000000000000e+00 0.0000000000000000e+00 0.0000000000000000e+00 
0.0000000000000000e+00 0.0000000000000000e+00 0.0000000000000000e+00 
0.0000000000000000e+00 0.0000000000000000e+00 0.0000000000000000e+00 
0.0000000000000000e+00 0.0000000000000000e+00 0.0000000000000000e+00 
0.0000000000000000e+00 0.0000000000000000e+00 0.0000000000000000e+00 
0.0000000000000000e+00 0.0000000000000000e+00 0.0000000000000000e+00 
0.0000000000000000e+00 0.0000000000000000e+00 0.0000000000000000e+00 
0.0000000000000000e+00 0.0000000000000000e+00 0.0000000000000000e+00 
0.0000000000000000e+00 0.0000000000000000e+00 0.0000000000000000e+00 
0.0000000000000000e+00 0.0000000000000000e+00 0.0000000000000000e+00 
0.0000000000000000e+00 0.0000000000000000e+00 0.0000000000000000e+00 
0.0000000000000000e+00 0.0000000000000000e+00 0.0000000000000000e+00 
0.0000000000000000e+00 0.0000000000000000e+00 0.0000000000000000e+00 
0.0000000000000000e+00 0.0000000000000000e+00 0.0000000000000000e+00 
0.0000000000000000e+00 0.0000000000000000e+00 0.0000000000000000e+00 
0.0000000000000000e+00 0.0000000000000000e+00 0.0000000000000000e+00 
0.0000000000000000e+00 0.0000000000000000e+00 0.0000000000000000e+00 
0.0000000000000000e+00 0.0000000000000000e+00 0.0000000000000000e+00 
0.0000000000000000e+00 0.0000000000000000e+00 0.0000000000000000e+00 
0.0000000000000000e+00 0.0000000000000000e+00 0.0000000000000000e+00 
0.0000000000000000e+00 0.0000000000000000e+00 0.0000000000000000e+00 
0.0000000000000000e+00 0.0000000000000000e+00 0.0000000000000000e+00 
0.0000000000000000e+00 0.0000000000000000e+00 0.0000000000000000e+00 
0.0000000000000000e+00 0.0000000000000000e+00 0.0000000000000000e+00 
0.0000000000000000e+00 0.0000000000000000e+00 0.0000000000000000e+00 
0.0000000000000000e+00 0.0000000000000000e+00 0.0000000000000000e+00 
0.0000000000000000e+00 0.0000000000000000e+00 0.0000000000000000e+00 
0.0000000000000000e+00 0.0000000000000000e+00 0.0000000000000000e+00 
0.0000000000000000e+00 0.0000000000000000e+00 0.0000000000000000e+00 
0.0000000000000000e+00 0.0000000000000000e+00 0.0000000000000000e+00 
0.0000000000000000e+00 0.0000000000000000e+00 0.0000000000000000e+00 
0.0000000000000000e+00 0.0000000000000000e+00 0.0000000000000000e+00 
0.0000000000000000e+00 0.0000000000000000e+00 0.0000000000000000e+00 
0.0000000000000000e+00 0.0000000000000000e+00 0.0000000000000000e+00 
0.0000000000000000e+00 0.0000000000000000e+00 0.0000000000000000e+00 
0.0000000000000000e+00 0.0000000000000000e+00 0.0000000000000000e+00 
0.0000000000000000e+00 0.0000000000000000e+00 0.0000000000000000e+00 
0.0000000000000000e+00 0.0000000000000000e+00 0.0000000000000000e+00 
0.0000000000000000e+00 0.0000000000000000e+00 0.0000000000000000e+00 
0.0000000000000000e+00 0.0000000000000000e+00 0.0000000000000000e+00 
0.0000000000000000e+00 0.0000000000000000e+00 0.0000000000000000e+00 
0.0000000000000000e+00 0.0000000000000000e+00 0.0000000000000000e+00 
0.0000000000000000e+00 0.0000000000000000e+00 0.0000000000000000e+00 
0.0000000000000000e+00 0.0000000000000000e+00 0.0000000000000000e+00 
0.0000000000000000e+00 0.0000000000000000e+00 0.0000000000000000e+00 
0.0000000000000000e+00 0.0000000000000000e+00 0.0000000000000000e+00 
0.0000000000000000e+00 0.0000000000000000e+00 0.0000000000000000e+00 
0.0000000000000000e+00 0.0000000000000000e+00 0.0000000000000000e+00 
0.0000000000000000e+00 0.0000000000000000e+00 0.0000000000000000e+00 
0.0000000000000000e+00 0.0000000000000000e+00 0.0000000000000000e+00 
0.0000000000000000e+00 0.0000000000000000e+00 0.0000000000000000e+00 
0.0000000000000000e+00 0.0000000000000000e+00 0.0000000000000000e+00 
0.0000000000000000e+00 0.0000000000000000e+00 0.0000000000000000e+00 
0.0000000000000000e+00 0.0000000000000000e+00 0.0000000000000000e+00 
0.0000000000000000e+00 0.0000000000000000e+00 0.0000000000000000e+00 
0.0000000000000000e+00 0.0000000000000000e+00 0.0000000000000000e+00 
0.0000000000000000e+00 0.0000000000000000e+00 0.0000000000000000e+00 
0.0000000000000000e+00 0.0000000000000000e+00 0.0000000000000000e+00 
0.0000000000000000e+00 0.0000000000000000e+00 0.0000000000000000e+00 
0.0000000000000000e+00 0.0000000000000000e+00 0.0000000000000000e+00 
0.0000000000000000e+00 0.0000000000000000e+00 0.0000000000000000e+00 
0.0000000000000000e+00 0.0000000000000000e+00 0.0000000000000000e+00 
0.0000000000000000e+00 0.0000000000000000e+00 0.0000000000000000e+00 
0.0000000000000000e+00 0.0000000000000000e+00 0.0000000000000000e+00 
0.0000000000000000e+00 0.0000000000000000e+00 0.0000000000000000e+00 
0.0000000000000000e+00 0.0000000000000000e+00 0.0000000000000000e+00 
0.0000000000000000e+00 0.0000000000000000e+00 0.0000000000000000e+00 
0.0000000000000000e+00 0.0000000000000000e+00 0.0000000000000000e+00 
0.0000000000000000e+00 0.0000000000000000e+00 0.0000000000000000e+00 
0.0000000000000000e+00 0.0000000000000000e+00 0.0000000000000000e+00 
0.0000000000000000e+00 0.0000000000000000e+00 0.0000000000000000e+00 
0.0000000000000000e+00 0.0000000000000000e+00 0.0000000000000000e+00 
0.0000000000000000e+00 0.0000000000000000e+00 0.0000000000000000e+00 
0.0000000000000000e+00 0.0000000000000000e+00 0.0000000000000000e+00 
0.0000000000000000e+00 0.0000000000000000e+00 0.0000000000000000e+00 
0.0000000000000000e+00 0.0000000000000000e+00 0.0000000000000000e+00 
0.0000000000000000e+00 0.0000000000000000e+00 0.0000000000000000e+00 
0.0000000000000000e+00 0.0000000000000000e+00 0.0000000000000000e+00 
0.0000000000000000e+00 0.0000000000000000e+00 0.0000000000000000e+00 
0.0000000000000000e+00 0.0000000000000000e+00 0.0000000000000000e+00 
0.0000000000000000e+00 0.0000000000000000e+00 0.0000000000000000e+00 
0.0000000000000000e+00 0.0000000000000000e+00 0.0000000000000000e+00 
0.0000000000000000e+00 0.0000000000000000e+00 0.0000000000000000e+00 
0.0000000000000000e+00 0.0000000000000000e+00 0.0000000000000000e+00 
0.0000000000000000e+00 0.0000000000000000e+00 0.0000000000000000e+00 
0.0000000000000000e+00 0.0000000000000000e+00 0.0000000000000000e+00 
0.0000000000000000e+00 0.0000000000000000e+00 0.0000000000000000e+00 
0.0000000000000000e+00 0.0000000000000000e+00 0.0000000000000000e+00 
0.0000000000000000e+00 0.0000000000000000e+00 0.0000000000000000e+00 
0.0000000000000000e+00 0.0000000000000000e+00 0.0000000000000000e+00 
0.0000000000000000e+00 0.0000000000000000e+00 0.0000000000000000e+00 
0.0000000000000000e+00 0.0000000000000000e+00 0.0000000000000000e+00 
0.0000000000000000e+00 0.0000000000000000e+00 0.0000000000000000e+00 
0.0000000000000000e+00 0.0000000000000000e+00 0.0000000000000000e+00 
0.0000000000000000e+00 0.0000000000000000e+00 0.0000000000000000e+00 

VECTORS Displacement float
0.0000000000000000e+00 0.0000000000000000e+00 0.0000000000000000e+00 
1.8890601533075339e-03 2.9606867985131225e-03 0.0000000000000000e+00 
0.0000000000000000e+00 0.0000000000000000e+00 0.0000000000000000e+00 
1.8890406987877200e-03 2.9607023986083659e-03 0.0000000000000000e+00 
7.1541808847223193e-04 1.4502830314614969e-03 0.0000000000000000e+00 
7.1540447022166889e-04 1.4502748325497749e-03 0.0000000000000000e+00 
0.0000000000000000e+00 0.0000000000000000e+00 0.0000000000000000e+00 
1.8890533651648909e-03 2.9606918186137815e-03 -5.6768584535092084e-09 
7.1540989064004085e-04 1.4502779500578204e-03 -6.2279251973931324e-10 
0.0000000000000000e+00 0.0000000000000000e+00 0.0000000000000000e+00 
1.8620263871654355e-03 -2.8828028019133468e-03 0.0000000000000000e+00 
0.0000000000000000e+00 0.0000000000000000e+00 0.0000000000000000e+00 
1.8620223240005656e-03 -2.8828200880312840e-03 0.0000000000000000e+00 
7.1220961544729458e-04 -1.4079300790060126e-03 0.0000000000000000e+00 
7.1221035978043853e-04 -1.4079237972428838e-03 0.0000000000000000e+00 
0.0000000000000000e+00 0.0000000000000000e+00 0.0000000000000000e+00 
1.8620307554343919e-03 -2.8828111891400121e-03 -3.6604480978239797e-09 
7.1220435248651299e-04 -1.4079294625839668e-03 -1.0395807647920433e-09 
6.9677049509545208e-03 5.9053368577093070e-03 0.0000000000000000e+00 
6.9676996879837793e-03 5.9053452888169367e-03 0.0000000000000000e+00 
4.0375520661979046e-03 4.4579626841099538e-03 0.0000000000000000e+00 
4.0375420369102247e-03 4.4579756671408715e-03 0.0000000000000000e+00 
6.9677073655003531e-03 5.9053397933752222e-03 -6.0607918304603630e-09 
4.0375461006336788e-03 4.4579605306220554e-03 -6.6488550652783491e-09 
6.8595207286297286e-03 -5.8637293065046826e-03 0.0000000000000000e+00 
6.8595108149307965e-03 -5.8637529656667409e-03 0.0000000000000000e+00 
3.9500837970546593e-03 -4.3889964874143702e-03 0.0000000000000000e+00 
3.9500804900143675e-03 -4.3890118168769436e-03 0.0000000000000000e+00 
6.8595250596632223e-03 -5.8637366967374954e-03 -6.5946940171368163e-09 
3.9500793356298074e-03 -4.3890056571234230e-03 -2.7655132253869180e-09 
1.5076788971913054e-02 8.6623617030594027e-03 0.0000000000000000e+00 
1.5076771623682858e-02 8.6623570591199753e-03 0.0000000000000000e+00 
1.0617339266555927e-02 7.2982075661968855e-03 0.0000000000000000e+00 
1.0617327694139211e-02 7.2981942450414984e-03 0.0000000000000000e+00 
1.5076770733689803e-02 8.6623635184625691e-03 -3.3598405957045400e-09 
1.0617334679219687e-02 7.2982023999830867e-03 -2.4772673395156401e-09 
1.5055036345516391e-02 -8.6473034659837380e-03 0.0000000000000000e+00 
1.5055025493104808e-02 -8.6473168458051294e-03 0.0000000000000000e+00 
1.0560070181559928e-02 -7.2705572073413927e-03 0.0000000000000000e+00 
1.0560066160057890e-02 -7.2705621405986780e-03 0.0000000000000000e+00 
1.5055045140970842e-02 -8.6473130392519422e-03 -1.4240786484270465e-09 
1.0560082459350206e-02 -7.2705655461987482e-03 -4.4683876950160286e-09 
2.6252589085034139e-02 1.1243470621548981e-02 0.0000000000000000e+00 
2.6252578690693164e-02 1.1243485126794033e-02 0.0000000000000000e+00 
2.0324326865555305e-02 9.9655591297785739e-03 0.0000000000000000e+00 
2.0324299807418719e-02 9.9655556444498417e-03 0.0000000000000000e+00 
2.6252590426988617e-02 1.1243486699827901e-02 -2.9372663319361127e-09 
2.0324315610608580e-02 9.9655693891808981e-03 -4.3120121036800435e-09 
2.6184302500695512e-02 -1.1337548684641454e-02 0.0000000000000000e+00 
2.6184311322733467e-02 -1.1337570691754173e-02 0.0000000000000000e+00 
2.0276801091730037e-02 -9.9901873978822976e-03 0.0000000000000000e+00 
2.0276794913927712e-02 -9.9902018333693533e-03 0.0000000000000000e+00 
2.6184303670486738e-02 -1.1337560000758265e-02 -3.0126900980132080e-09 
2.0276786480245355e-02 -9.9901972903759500e-03 -3.9090928466535030e-10 
4.0233263249124671e-02 1.3850126406288379e-02 0.0000000000000000e+00 
4.0233270732941001e-02 1.3850133089041417e-02 0.0000000000000000e+00 
3.2869442992028597e-02 1.2539533930494989e-02 0.0000000000000000e+00 
3.2869442734758676e-02 1.2539537292109300e-02 0.0000000000000000e+00 
4.0233255692767922e-02 1.3850137698375078e-02 -2.0551580810847397e-09 
3.2869442394492715e-02 1.2539534522766738e-02 -3.2575005878971711e-09 
4.0203054993656673e-02 -1.3984665227329027e-02 0.0000000000000000e+00 
4.0203067839870821e-02 -1.3984675891873263e-02 0.0000000000000000e+00 
3.2814185000495336e-02 -1.2677072377533278e-02 0.0000000000000000e+00 
3.2814193412601722e-02 -1.2677087209334678e-02 0.0000000000000000e+00 
4.0203062940732934e-02 -1.3984669714651709e-02 -5.7981005934309045e-09 
3.2814182592194790e-02 -1.2677074927158936e-02 -4.0781817561545764e-09 
5.7366048828652226e-02 1.6406586940208707e-02 0.0000000000000000e+00 
5.7366057854787544e-02 1.6406579484637189e-02 0.0000000000000000e+00 
4.8385450929398444e-02 1.5162680466151709e-02 0.0000000000000000e+00 
4.8385452958268849e-02 1.5162672617645520e-02 0.0000000000000000e+00 
5.7366065558352664e-02 1.6406589408755202e-02 3.2555467367064612e-10 
4.8385453251839308e-02 1.5162682220460440e-02 9.9761289594085798e-10 
5.7265116565170880e-02 -1.6518646098239668e-02 0.0000000000000000e+00 
5.7265120236259827e-02 -1.6518652565172202e-02 0.0000000000000000e+00 
4.8337015162660160e-02 -1.5273664612514564e-02 0.0000000000000000e+00 
4.8337023542650917e-02 -1.5273662020367437e-02 0.0000000000000000e+00 
5.7265122936455734e-02 -1.6518652591144992e-02 -6.1997421659834321e-09 
4.8337012816765799e-02 -1.5273661927855125e-02 -7.9432509848049181e-09 
7.7144258326335868e-02 1.8431383684990574e-02 0.0000000000000000e+00 
7.7144206185425945e-02 1.8431366997277612e-02 0.0000000000000000e+00 
6.7005732570737275e-02 1.7479291110467456e-02 0.0000000000000000e+00 
6.7005720011967140e-02 1.7479266374779923e-02 0.0000000000000000e+00 
7.7144237406896327e-02 1.8431377289374128e-02 -3.9618750329654677e-09 
6.7005722595465181e-02 1.7479276315121930e-02 -1.6376689102012825e-09 
7.7014556109136323e-02 -1.8681309422039979e-02 0.0000000000000000e+00 
7.7014534997669776e-02 -1.8681314206771302e-02 0.0000000000000000e+00 
6.6864328118912658e-02 -1.7652253144352918e-02 0.0000000000000000e+00 
6.6864324158779964e-02 -1.7652252965176640e-02 0.0000000000000000e+00 
7.7014555728616929e-02 -1.8681319024915773e-02 -7.0344894563103173e-10 
6.6864311959618755e-02 -1.7652256284124718e-02 -6.0538884576960148e-09 
9.9018224433586904e-02 2.0163750268624853e-02 0.0000000000000000e+00 
9.9018175220043150e-02 2.0163775645766553e-02 0.0000000000000000e+00 
8.7851454787467864e-02 1.9317112862463917e-02 0.0000000000000000e+00 
8.7851390722882713e-02 1.9317108507451282e-02 0.0000000000000000e+00 
9.9018210059802048e-02 2.0163761876621514e-02 -7.6083612732170734e-09 
8.7851429936742942e-02 1.9317106367699927e-02 -9.4116285690757577e-09 
9.8885275346796420e-02 -2.0501613507885007e-02 0.0000000000000000e+00 
9.8885247257669451e-02 -2.0501639887174385e-02 0.0000000000000000e+00 
8.7728997002842923e-02 -1.9620446163164523e-02 0.0000000000000000e+00 
8.7728958264032819e-02 -1.9620460093577676e-02 0.0000000000000000e+00 
9.8885261525777451e-02 -2.0501629128800589e-02 -1.4118112460711455e-09 
8.7728972683273426e-02 -1.9620453299657947e-02 -3.0869344870693634e-10 
1.2271914487542795e-01 2.1848183288980194e-02 0.0000000000000000e+00 
1.2271913964863027e-01 2.1848182511460177e-02 0.0000000000000000e+00 
1.1060690867304224e-01 2.1013260641632968e-02 0.0000000000000000e+00 
1.1060688876648589e-01 2.1013269067996998e-02 0.0000000000000000e+00 
1.2271913538308590e-01 2.1848193735702660e-02 -6.1516170010960538e-09 
1.1060690581356256e-01 2.1013265788269564e-02 -5.5099587253639494e-09 
1.2262588244343597e-01 -2.2180714643421674e-02 0.0000000000000000e+00 
1.2262588953230323e-01 -2.2180715927684183e-02 0.0000000000000000e+00 
1.1048692058870695e-01 -2.1360302495787797e-02 0.0000000000000000e+00 
1.1048690857629084e-01 -2.1360310640640832e-02 0.0000000000000000e+00 
1.2262588570428429e-01 -2.2180720465429592e-02 -3.1648487122142046e-09 
1.1048691293249135e-01 -2.1360307633786359e-02 -3.8459435117226443e-09 
1.4826082854154293e-01 2.3277619967703292e-02 0.0000000000000000e+00 
1.4826082695203291e-01 2.3277613257040246e-02 0.0000000000000000e+00 
1.3528292949554532e-01 2.2611298932356312e-02 0.0000000000000000e+00 
1.3528292905081604e-01 2.2611291480407948e-02 0.0000000000000000e+00 
1.4826083815256533e-01 2.3277636230442128e-02 -5.3316238264610812e-09 
1.3528292974678546e-01 2.2611309743484742e-02 -6.3868133445183688e-09 
1.4819474523414239e-01 -2.3549360922029795e-02 0.0000000000000000e+00 
1.4819474983540465e-01 -2.3549341221050582e-02 0.0000000000000000e+00 
1.3523227266702331e-01 -2.2904934324895685e-02 0.0000000000000000e+00 
1.3523228821767799e-01 -2.2904920889305437e-02 0.0000000000000000e+00 
1.4819475218670947e-01 -2.3549364383331221e-02 -1.0652708866845030e-09 
1.3523227661488774e-01 -2.2904937591767850e-02 -3.1936178124907781e-09 
1.7521092195600896e-01 2.4201046641290150e-02 0.0000000000000000e+00 
1.7521091754874613e-01 2.4201049413865288e-02 0.0000000000000000e+00 
1.6161837590690364e-01 2.3795939462988639e-02 0.0000000000000000e+00 
1.6161836629969617e-01 2.3795928414413262e-02 0.0000000000000000e+00 
1.7521092487078002e-01 2.4201059055209112e-02 -3.9885763298917306e-09 
1.6161837549525179e-01 2.3795947959113758e-02 -5.7000386966583687e-09 
1.7506821291700150e-01 -2.4637791995690311e-02 0.0000000000000000e+00 
1.7506821993275551e-01 -2.4637798252080938e-02 0.0000000000000000e+00 
1.6149121751846113e-01 -2.4129361541074035e-02 0.0000000000000000e+00 
1.6149121567919678e-01 -2.4129346497670873e-02 0.0000000000000000e+00 
1.7506822554919232e-01 -2.4637797601793701e-02 -4.2916693287914309e-09 
1.6149120651417159e-01 -2.4129360494633229e-02 -4.2780616076974319e-09 
2.0290048308424474e-01 2.4872088402584591e-02 0.0000000000000000e+00 
2.0290046769212433e-01 2.4872100467387758e-02 0.0000000000000000e+00 
1.8896145954557192e-01 2.4547983660764574e-02 0.0000000000000000e+00 
1.8896145140062359e-01 2.4547979294053189e-02 0.0000000000000000e+00 
2.0290047178812859e-01 2.4872107291730498e-02 -7.8828443025738802e-09 
1.8896145067541842e-01 2.4547986366127983e-02 -5.2669541480495954e-09 
2.0281052629519331e-01 -2.5415042367835636e-02 0.0000000000000000e+00 
2.0281054049959851e-01 -2.5415042597219877e-02 0.0000000000000000e+00 
1.8884604525126980e-01 -2.5052847488993120e-02 0.0000000000000000e+00 
1.8884606802148446e-01 -2.5052848141962677e-02 0.0000000000000000e+00 
2.0281053323357734e-01 -2.5415045377533692e-02 -5.1609326923955945e-09 
1.8884605241407998e-01 -2.5052849231142080e-02 -8.4074909978536812e-09 
2.3126645277878163e-01 2.5435936197832253e-02 0.0000000000000000e+00 
2.3126644449465333e-01 2.5435947522582297e-02 0.0000000000000000e+00 
2.1702754035725241e-01 2.5166006453459688e-02 0.0000000000000000e+00 
2.1702753271740688e-01 2.5166023271052683e-02 0.0000000000000000e+00 
2.3126645865255899e-01 2.5435949637806668e-02 -6.4728160545379695e-09 
2.1702754139782016e-01 2.5166022926698006e-02 -8.4064481107566797e-09 
2.3119340940833022e-01 -2.5969235036670941e-02 0.0000000000000000e+00 
2.3119339272144118e-01 -2.5969241196864862e-02 0.0000000000000000e+00 
2.1693886766532794e-01 -2.5724620025192865e-02 0.0000000000000000e+00 
2.1693885720845299e-01 -2.5724617207534876e-02 0.0000000000000000e+00 
2.3119339127171742e-01 -2.5969243359149755e-02 -1.6570815522294026e-10 
2.1693884858289519e-01 -2.5724616672107733e-02 -2.8811923501997120e-09 
2.6009505367404184e-01 2.5962190817194149e-02 0.0000000000000000e+00 
2.6009502605698670e-01 2.5962204128727857e-02 0.0000000000000000e+00 
2.4561637769173161e-01 2.5695226581071387e-02 0.0000000000000000e+00 
2.4561635195297082e-01 2.5695231770125553e-02 0.0000000000000000e+00 
2.6009506023825529e-01 2.5962206072828932e-02 -8.2154992537074588e-09 
2.4561637211680104e-01 2.5695240007776114e-02 -7.2499384187943051e-09 
2.6001842628310273e-01 -2.6391602895693849e-02 0.0000000000000000e+00 
2.6001842292892463e-01 -2.6391601722236362e-02 0.0000000000000000e+00 
2.4555910716853790e-01 -2.6173552941584327e-02 0.0000000000000000e+00 
2.4555909863518932e-01 -2.6173554749370914e-02 0.0000000000000000e+00 
2.6001842763615324e-01 -2.6391606889647114e-02 -2.4004939446599439e-09 
2.4555909312273053e-01 -2.6173557706941332e-02 -3.5538223580534316e-09 
2.8950054906556522e-01 2.6506813074274691e-02 0.0000000000000000e+00 
2.8950054476956788e-01 2.6506820317366502e-02 0.0000000000000000e+00 
2.7471588065428065e-01 2.6235415756911032e-02 0.0000000000000000e+00 
2.7471586536545856e-01 2.6235423486878864e-02 0.0000000000000000e+00 
2.8950055098981109e-01 2.6506819552622199e-02 -3.6610758565318460e-09 
2.7471587768879824e-01 2.6235417689398452e-02 -6.5795431868675524e-09 
2.8938156049432612e-01 -2.6992192090038655e-02 0.0000000000000000e+00 
2.8938155469437232e-01 -2.6992201228099075e-02 0.0000000000000000e+00 
2.7460369638133708e-01 -2.6672736288597034e-02 0.0000000000000000e+00 
2.7460368457545925e-01 -2.6672736988453259e-02 0.0000000000000000e+00 
2.8938155785781805e-01 -2.6992194174499242e-02 -2.1591410609419745e-09 
2.7460369060664702e-01 -2.6672733578678151e-02 -3.6916200656119332e-09 
3.1960267614835708e-01 2.7029564689333346e-02 0.0000000000000000e+00 
3.1960268370781514e-01 2.7029547253757481e-02 0.0000000000000000e+00 
3.0445145426624898e-01 2.6777366441291101e-02 0.0000000000000000e+00 
3.0445146447904003e-01 2.6777358341745182e-02 0.0000000000000000e+00 
3.1960268832972227e-01 2.7029554367753117e-02 -5.8574185472402932e-09 
3.0445147076636314e-01 2.6777360475287851e-02 -4.7620868034757222e-09 
3.1955859501250505e-01 -2.7576250303246123e-02 0.0000000000000000e+00 
3.1955860942020076e-01 -2.7576241660961821e-02 0.0000000000000000e+00 
3.0437510169628490e-01 -2.7307398388781677e-02 0.0000000000000000e+00 
3.0437510822185121e-01 -2.7307398661078119e-02 0.0000000000000000e+00 
3.1955859579714879e-01 -2.7576254846952381e-02 -1.3458892928023317e-10 
3.0437509191145273e-01 -2.7307400637952985e-02 -2.2141872369195474e-09 
3.5034415262374546e-01 2.7349952517865567e-02 0.0000000000000000e+00 
3.5034415069307623e-01 2.7349944159710909e-02 0.0000000000000000e+00 
3.3493604073099953e-01 2.7216337596246351e-02 0.0000000000000000e+00 
3.3493603139445927e-01 2.7216323006186649e-02 0.0000000000000000e+00 
3.5034416155460973e-01 2.7349954519420620e-02 -1.4293749796458057e-09 
3.3493603933827421e-01 2.7216331211324205e-02 -5.8573392219702038e-09 
3.5033158415723864e-01 -2.7848503747560462e-02 0.0000000000000000e+00 
3.5033158427519773e-01 -2.7848500835552015e-02 0.0000000000000000e+00 
3.3489596292989099e-01 -2.7759726033496822e-02 0.0000000000000000e+00 
3.3489596175603176e-01 -2.7759713822103092e-02 0.0000000000000000e+00 
3.5033159407366554e-01 -2.7848508628722360e-02 1.6980508257942776e-10 
3.3489595854744880e-01 -2.7759724434489191e-02 -2.3169266988011617e-09 
3.8124789031000739e-01 2.7485115891954872e-02 0.0000000000000000e+00 
3.8117851633510469e-01 8.9474562209074307e-03 0.0000000000000000e+00 
3.8124787912401731e-01 2.7485099230478045e-02 0.0000000000000000e+00 
3.8117850759514749e-01 8.9474582682481409e-03 0.0000000000000000e+00 
3.6578187018240438e-01 2.7439566746546823e-02 0.0000000000000000e+00 
3.8122491706037487e-01 1.8201935084404749e-02 0.0000000000000000e+00 
3.6578187070068957e-01 2.7439558517560921e-02 0.0000000000000000e+00 
3.8122490555088201e-01 1.8201930895344071e-02 0.0000000000000000e+00 
3.8124787644591052e-01 2.7485109823886956e-02 1.8563989314466871e-09 
3.8117850673747633e-01 8.9474604250581440e-03 9.1194870084217113e-10 
3.6578186946575536e-01 2.7439560713250266e-02 -1.1007355798239828e-09 
3.8122490246917951e-01 1.8201933721353064e-02 2.2548504652956590e-10 
3.8109570856691416e-01 -9.4254597594447594e-03 0.0000000000000000e+00 
3.8109570010445548e-01 -9.4254615125701248e-03 0.0000000000000000e+00 
3.8112917888987730e-01 -2.5301456814237210e-04 0.0000000000000000e+00 
3.8112917524997258e-01 -2.5301212295109033e-04 0.0000000000000000e+00 
3.8109572093553090e-01 -9.4254615743317813e-03 1.0888299107278458e-09 
3.8112918574081689e-01 -2.5300924756696173e-04 6.2774531578318551e-10 
3.8106437900014967e-01 -2.7801538578775764e-02 0.0000000000000000e+00 
3.8106436601937105e-01 -2.7801533154550410e-02 0.0000000000000000e+00 
3.6573507882061956e-01 -2.7829801127734123e-02 0.0000000000000000e+00 
3.8107670580988029e-01 -1.8612265039706134e-02 0.0000000000000000e+00 
3.6573507496053281e-01 -2.7829795094343877e-02 0.0000000000000000e+00 
3.8107669371554431e-01 -1.8612266377572111e-02 0.0000000000000000e+00 
3.8106439048690910e-01 -2.7801554244593449e-02 -2.3705281123489193e-09 
3.6573508427171492e-01 -2.7829807087085594e-02 -3.2119284139544455e-09 
3.8107671229874684e-01 -1.8612273158215020e-02 -1.9836152716004101e-09 

VECTORS Stress float
2.0412936112297206e+02 -7.1347463476903386e+00 1.2391833239074219e-12 
2.0536092507237788e+02 -1.1422863953555861e+01 1.6338866016162783e-12 
2.0412936112297206e+02 -7.1347463476903386e+00 1.2391833239074219e-12 
2.0536092507237788e+02 -1.1422863953555861e+01 1.6338866016162783e-12 
2.0529330211691956e+02 -7.3461794069531834e+00 1.4466554545308628e-12 
2.0529330211691956e+02 -7.3461794069531834e+00 1.4466554545308628e-12 
2.0412936112297206e+02 -7.1347463476903386e+00 1.2391833239074219e-12 
2.0536092507237788e+02 -1.1422863953555861e+01 1.6338866016162783e-12 
2.0529330211691956e+02 -7.3461794069531834e+00 1.4466554545308628e-12 
-8.8010411361843097e+01 6.5774700178507146e+00 1.5020742964974652e-12 
-9.1292215756474093e+01 5.1646072801024729e+00 2.4908672811720921e-12 
-8.8010411361843097e+01 6.5774700178507146e+00 1.5020742964974652e-12 
-9.1292215756474093e+01 5.1646072801024729e+00 2.4908672811720921e-12 
-9.0663571104018217e+01 3.9004862010948500e+00 1.8300907036867625e-12 
-9.0663571104018217e+01 3.9004862010948500e+00 1.8300907036867625e-12 
-8.8010411361843097e+01 6.5774700178507146e+00 1.5020742964974652e-12 
-9.1292215756474093e+01 5.1646072801024729e+00 2.4908672811720921e-12 
-9.0663571104018217e+01 3.9004862010948500e+00 1.8300907036867625e-12 
2.0443566767400216e+02 -2.3242804984468876e+01 1.2563357997596542e-12 
2.0443566767400216e+02 -2.3242804984468876e+01 1.2563357997596542e-12 
2.0497529145620592e+02 -1.7356986212797210e+01 1.6505865194089963e-12 
2.0497529145620592e+02 -1.7356986212797210e+01 1.6505865194089963e-12 
2.0443566767400216e+02 -2.3242804984468876e+01 1.2563357997596542e-12 
2.0497529145620592e+02 -1.7356986212797210e+01 1.6505865194089963e-12 
-9.0557907037799737e+01 1.1463076805535820e+01 2.9619273773182744e-12 
-9.0557907037799737e+01 1.1463076805535820e+01 2.9619273773182744e-12 
-9.0958980549231342e+01 8.3374499272088087e+00 3.0984852281222656e-12 
-9.0958980549231342e+01 8.3374499272088087e+00 3.0984852281222656e-12 
-9.0557907037799737e+01 1.1463076805535820e+01 2.9619273773182744e-12 
-9.0958980549231342e+01 8.3374499272088087e+00 3.0984852281222656e-12 
2.0282851715794141e+02 -3.3717486336636739e+01 -3.1607784269985440e-13 
2.0282851715794141e+02 -3.3717486336636739e+01 -3.1607784269985440e-13 
2.0368244071295567e+02 -2.8653842321552020e+01 4.5916148372720690e-13 
2.0368244071295567e+02 -2.8653842321552020e+01 4.5916148372720690e-13 
2.0282851715794141e+02 -3.3717486336636739e+01 -3.1607784269985440e-13 
2.0368244071295567e+02 -2.8653842321552020e+01 4.5916148372720690e-13 
-9.0221299617768864e+01 1.6577513252821063e+01 1.0213144654768412e-12 
-9.0221299617768864e+01 1.6577513252821063e+01 1.0213144654768412e-12 
-9.0309672308815379e+01 1.4127211405131220e+01 1.9835300116861473e-12 
-9.0309672308815379e+01 1.4127211405131220e+01 1.9835300116861473e-12 
-9.0221299617768864e+01 1.6577513252821063e+01 1.0213144654768412e-12 
-9.0309672308815379e+01 1.4127211405131220e+01 1.9835300116861473e-12 
1.9985329408687608e+02 -4.3013858876922768e+01 -7.4455973784112280e-13 
1.9985329408687608e+02 -4.3013858876922768e+01 -7.4455973784112280e-13 
2.0144104450789450e+02 -3.8441485316392118e+01 -6.5768334956298650e-13 
2.0144104450789450e+02 -3.8441485316392118e+01 -6.5768334956298650e-13 
1.9985329408687608e+02 -4.3013858876922768e+01 -7.4455973784112280e-13 
2.0144104450789450e+02 -3.8441485316392118e+01 -6.5768334956298650e-13 
-8.9596063271236517e+01 2.1284819974945094e+01 8.1231834881721954e-13 
-8.9596063271236517e+01 2.1284819974945094e+01 8.1231834881721954e-13 
-8.9864094482074279e+01 1.8938179236922224e+01 7.3498422867690605e-13 
-8.9864094482074279e+01 1.8938179236922224e+01 7.3498422867690605e-13 
-8.9596063271236517e+01 2.1284819974945094e+01 8.1231834881721954e-13 
-8.9864094482074279e+01 1.8938179236922224e+01 7.3498422867690605e-13 
1.9522598638462364e+02 -5.2185764003658733e+01 -6.2745406151880429e-13 
1.9522598638462364e+02 -5.2185764003658733e+01 -6.2745406151880429e-13 
1.9774627284216058e+02 -4.7596963119082375e+01 -7.2184201111847270e-13 
1.9774627284216058e+02 -4.7596963119082375e+01 -7.2184201111847270e-13 
1.9522598638462364e+02 -5.2185764003658733e+01 -6.2745406151880429e-13 
1.9774627284216058e+02 -4.7596963119082375e+01 -7.2184201111847270e-13 
-8.8658528096742202e+01 2.6064121146978323e+01 1.2095113540530030e-12 
-8.8658528096742202e+01 2.6064121146978323e+01 1.2095113540530030e-12 
-8.9164389935241388e+01 2.3654692737013193e+01 1.0275661605297386e-12 
-8.9164389935241388e+01 2.3654692737013193e+01 1.0275661605297386e-12 
-8.8658528096742202e+01 2.6064121146978323e+01 1.2095113540530030e-12 
-8.9164389935241388e+01 2.3654692737013193e+01 1.0275661605297386e-12 
1.8933491075048914e+02 -6.0300724013849958e+01 3.8324406811218560e-13 
1.8933491075048914e+02 -6.0300724013849958e+01 3.8324406811218560e-13 
1.9247731279992831e+02 -5.6522244274850436e+01 -3.1925971783907506e-13 
1.9247731279992831e+02 -5.6522244274850436e+01 -3.1925971783907506e-13 
1.8933491075048914e+02 -6.0300724013849958e+01 3.8324406811218560e-13 
1.9247731279992831e+02 -5.6522244274850436e+01 -3.1925971783907506e-13 
-8.7619897425546696e+01 3.0327006031938708e+01 1.1896721662081172e-13 
-8.7619897425546696e+01 3.0327006031938708e+01 1.1896721662081172e-13 
-8.8210831394471597e+01 2.8362543235196426e+01 1.0135677326709131e-12 
-8.8210831394471597e+01 2.8362543235196426e+01 1.0135677326709131e-12 
-8.7619897425546696e+01 3.0327006031938708e+01 1.1896721662081172e-13 
-8.8210831394471597e+01 2.8362543235196426e+01 1.0135677326709131e-12 
1.8297549258300000e+02 -6.6237428199736769e+01 1.7442937097162434e-12 
1.8297549258300000e+02 -6.6237428199736769e+01 1.7442937097162434e-12 
1.8617773501923966e+02 -6.3729326563547602e+01 1.1576777488766543e-12 
1.8617773501923966e+02 -6.3729326563547602e+01 1.1576777488766543e-12 
1.8297549258300000e+02 -6.6237428199736769e+01 1.7442937097162434e-12 
1.8617773501923966e+02 -6.3729326563547602e+01 1.1576777488766543e-12 
-8.6603016987100091e+01 3.3674072457636157e+01 -1.0283305287360196e-12 
-8.6603016987100091e+01 3.3674072457636157e+01 -1.0283305287360196e-12 
-8.7137783471004923e+01 3.2242224518324292e+01 -7.8201184577591746e-13 
-8.7137783471004923e+01 3.2242224518324292e+01 -7.8201184577591746e-13 
-8.6603016987100091e+01 3.3674072457636157e+01 -1.0283305287360196e-12 
-8.7137783471004923e+01 3.2242224518324292e+01 -7.8201184577591746e-13 
1.7659128332518799e+02 -7.0066060858119272e+01 2.1081032107633550e-12 
1.7659128332518799e+02 -7.0066060858119272e+01 2.1081032107633550e-12 
1.7981219074887326e+02 -6.8288120693616747e+01 2.1463156901168941e-12 
1.7981219074887326e+02 -6.8288120693616747e+01 2.1463156901168941e-12 
1.7659128332518799e+02 -7.0066060858119272e+01 2.1081032107633550e-12 
1.7981219074887326e+02 -6.8288120693616747e+01 2.1463156901168941e-12 
-8.5523607977833990e+01 3.6267015352604176e+01 -5.8513749735653982e-13 
-8.5523607977833990e+01 3.6267015352604176e+01 -5.8513749735653982e-13 
-8.6096149174418542e+01 3.4991931886595466e+01 -8.9558999922729560e-13 
-8.6096149174418542e+01 3.4991931886595466e+01 -8.9558999922729560e-13 
-8.5523607977833990e+01 3.6267015352604176e+01 -5.8513749735653982e-13 
-8.6096149174418542e+01 3.4991931886595466e+01 -8.9558999922729560e-13 
1.6988975675787606e+02 -7.3103535928372366e+01 7.4399765835322638e-13 
1.6988975675787606e+02 -7.3103535928372366e+01 7.4399765835322638e-13 
1.7324455558854766e+02 -7.1597572818292065e+01 1.5237708763746883e-12 
1.7324455558854766e+02 -7.1597572818292065e+01 1.5237708763746883e-12 
1.6988975675787606e+02 -7.3103535928372366e+01 7.4399765835322638e-13 
1.7324455558854766e+02 -7.1597572818292065e+01 1.5237708763746883e-12 
-8.4146976828177003e+01 3.8600035712186127e+01 3.5534915487153604e-13 
-8.4146976828177003e+01 3.8600035712186127e+01 3.5534915487153604e-13 
-8.4821764467429603e+01 3.7435146685435939e+01 -1.3834110057379296e-13 
-8.4821764467429603e+01 3.7435146685435939e+01 -1.3834110057379296e-13 
-8.4146976828177003e+01 3.8600035712186127e+01 3.5534915487153604e-13 
-8.4821764467429603e+01 3.7435146685435939e+01 -1.3834110057379296e-13 
1.6297343935497747e+02 -7.5334653982710734e+01 -1.0048846764656020e-12 
1.6297343935497747e+02 -7.5334653982710734e+01 -1.0048846764656020e-12 
1.6639383664233537e+02 -7.4275285021089530e+01 -1.6934304803461716e-13 
1.6639383664233537e+02 -7.4275285021089530e+01 -1.6934304803461716e-13 
1.6297343935497747e+02 -7.5334653982710734e+01 -1.0048846764656020e-12 
1.6639383664233537e+02 -7.4275285021089530e+01 -1.6934304803461716e-13 
-8.2653440277493701e+01 4.0010276302154580e+01 1.6239245162696381e-12 
-8.2653440277493701e+01 4.0010276302154580e+01 1.6239245162696381e-12 
-8.3396531971933655e+01 3.9321282191938735e+01 9.9537941132385520e-13 
-8.3396531971933655e+01 3.9321282191938735e+01 9.9537941132385520e-13 
-8.2653440277493701e+01 4.0010276302154580e+01 1.6239245162696381e-12 
-8.3396531971933655e+01 3.9321282191938735e+01 9.9537941132385520e-13 
1.5679426206684741e+02 -7.5720176081975296e+01 -1.2396564317151410e-12 
1.5679426206684741e+02 -7.5720176081975296e+01 -1.2396564317151410e-12 
1.5978025525117891e+02 -7.5767446094557272e+01 -1.3342715846201281e-12 
1.5978025525117891e+02 -7.5767446094557272e+01 -1.3342715846201281e-12 
1.5679426206684741e+02 -7.5720176081975296e+01 -1.2396564317151410e-12 
1.5978025525117891e+02 -7.5767446094557272e+01 -1.3342715846201281e-12 
-8.1047978298055000e+01 4.0582351402960740e+01 1.8918960457376548e-12 
-8.1047978298055000e+01 4.0582351402960740e+01 1.8918960457376548e-12 
-8.1871916360697014e+01 4.0390067572495354e+01 1.9252353816481477e-12 
-8.1871916360697014e+01 4.0390067572495354e+01 1.9252353816481477e-12 
-8.1047978298055000e+01 4.0582351402960740e+01 1.8918960457376548e-12 
-8.1871916360697014e+01 4.0390067572495354e+01 1.9252353816481477e-12 
1.5095960875777962e+02 -7.5006084896673201e+01 -4.6036639844176210e-13 
1.5095960875777962e+02 -7.5006084896673201e+01 -4.6036639844176210e-13 
1.5388833386381111e+02 -7.5518005988715231e+01 -9.6026523749054638e-13 
1.5388833386381111e+02 -7.5518005988715231e+01 -9.6026523749054638e-13 
1.5095960875777962e+02 -7.5006084896673201e+01 -4.6036639844176210e-13 
1.5388833386381111e+02 -7.5518005988715231e+01 -9.6026523749054638e-13 
-7.9216831415786714e+01 4.0594608695924762e+01 5.6057481535005994e-13 
-7.9216831415786714e+01 4.0594608695924762e+01 5.6057481535005994e-13 
-8.0179189392588569e+01 4.0733344133580431e+01 1.4978658242578118e-12 
-8.0179189392588569e+01 4.0733344133580431e+01 1.4978658242578118e-12 
-7.9216831415786714e+01 4.0594608695924762e+01 5.6057481535005994e-13 
-8.0179189392588569e+01 4.0733344133580431e+01 1.4978658242578118e-12 
1.4500104745203225e+02 -7.3595263612451163e+01 4.2419578391317133e-13 
1.4500104745203225e+02 -7.3595263612451163e+01 4.2419578391317133e-13 
1.4802228254610725e+02 -7.4479210229139426e+01 5.9428369578278351e-14 
1.4802228254610725e+02 -7.4479210229139426e+01 5.9428369578278351e-14 
1.4500104745203225e+02 -7.3595263612451163e+01 4.2419578391317133e-13 
1.4802228254610725e+02 -7.4479210229139426e+01 5.9428369578278351e-14 
-7.7129454778157310e+01 4.0151439360791528e+01 -6.6042960402802386e-13 
-7.7129454778157310e+01 4.0151439360791528e+01 -6.6042960402802386e-13 
-7.8228497059107212e+01 4.0499810297208342e+01 -3.4572769413239096e-13 
-7.8228497059107212e+01 4.0499810297208342e+01 -3.4572769413239096e-13 
-7.7129454778157310e+01 4.0151439360791528e+01 -6.6042960402802386e-13 
-7.8228497059107212e+01 4.0499810297208342e+01 -3.4572769413239096e-13 
1.3865645145268485e+02 -7.1548883831359717e+01 8.9638088041678615e-13 
1.3865645145268485e+02 -7.1548883831359717e+01 8.9638088041678615e-13 
1.4188331970280967e+02 -7.2608542291381582e+01 7.0912427503860865e-13 
1.4188331970280967e+02 -7.2608542291381582e+01 7.0912427503860865e-13 
1.3865645145268485e+02 -7.1548883831359717e+01 8.9638088041678615e-13 
1.4188331970280967e+02 -7.2608542291381582e+01 7.0912427503860865e-13 
-7.4773607872179980e+01 3.9711011096027505e+01 -5.7378049450293155e-13 
-7.4773607872179980e+01 3.9711011096027505e+01 -5.7378049450293155e-13 
-7.5989111282589761e+01 3.9835649323934149e+01 -6.3530649501462006e-13 
-7.5989111282589761e+01 3.9835649323934149e+01 -6.3530649501462006e-13 
-7.4773607872179980e+01 3.9711011096027505e+01 -5.7378049450293155e-13 
-7.5989111282589761e+01 3.9835649323934149e+01 -6.3530649501462006e-13 
1.3083921942955413e+02 -6.9006031537996137e+01 1.1735949009635782e-12 
1.3083921942955413e+02 -6.9006031537996137e+01 1.1735949009635782e-12 
1.3514996480673176e+02 -7.0348251565043256e+01 9.9057537823704346e-13 
1.3514996480673176e+02 -7.0348251565043256e+01 9.9057537823704346e-13 
1.3083921942955413e+02 -6.9006031537996137e+01 1.1735949009635782e-12 
1.3514996480673182e+02 -7.0348251565043256e+01 9.9057537823703053e-13 
-7.2172155641758025e+01 3.9318680112187963e+01 -3.6711632293624703e-13 
-7.2172155641758025e+01 3.9318680112187963e+01 -3.6711632293624703e-13 
-7.3472960865270721e+01 3.9673259961172676e+01 -5.3300844530261607e-13 
-7.3472960865270721e+01 3.9673259961172676e+01 -5.3300844530261607e-13 
-7.2172155641758025e+01 3.9318680112187963e+01 -3.6711632293624703e-13 
-7.3472960865271148e+01 3.9673259961173358e+01 -5.3300844530260314e-13 
1.1985714268183835e+02 -6.5143273804129649e+01 1.9714190670465711e-12 
1.1985714268183835e+02 -6.5143273804129649e+01 1.9714190670465711e-12 
1.2495196815179958e+02 -6.6983594897917669e+01 1.5647707448203889e-12 
1.2495196815179958e+02 -6.6983594897917669e+01 1.5647707448203889e-12 
1.1985714268183835e+02 -6.5143273804129649e+01 1.9714190670465711e-12 
1.2495196815179958e+02 -6.6983594897917669e+01 1.5647707448203889e-12 
-6.9363132285194865e+01 3.7348343979779543e+01 6.8889063593954182e-13 
-6.9363132285194865e+01 3.7348343979779543e+01 6.8889063593954182e-13 
-7.0715577917425151e+01 3.7737775563025480e+01 1.1754776678403742e-13 
-7.0715577917425151e+01 3.7737775563025480e+01 1.1754776678403742e-13 
-6.9363132285194865e+01 3.7348343979779543e+01 6.8889063593954182e-13 
-7.0715577917425151e+01 3.7737775563025480e+01 1.1754776678403742e-13 
1.2182937200858629e+02 -6.4619823250179479e+01 1.9469076340615751e-12 
1.2182937200858629e+02 -6.4619823250179479e+01 1.9469076340615751e-12 
1.2166352700720552e+02 -6.5091481335907588e+01 2.1381503364303447e-12 
1.2166352700720552e+02 -6.5091481335907588e+01 2.1381503364303447e-12 
1.2182937200858629e+02 -6.4619823250179479e+01 1.9469076340615751e-12 
1.2166352700720566e+02 -6.5091481335907474e+01 2.1381503364303302e-12 
-6.8987814795830303e+01 4.8816790239077932e+01 1.5342386140332545e-12 
-6.8987814795830303e+01 4.8816790239077932e+01 1.5342386140332545e-12 
-6.8962533992680136e+01 4.3590101428737654e+01 1.2263451341809882e-12 
-6.8962533992680136e+01 4.3590101428737654e+01 1.2263451341809882e-12 
-6.8987814795830303e+01 4.8816790239077932e+01 1.5342386140332545e-12 
-6.8962533992680008e+01 4.3590101428737455e+01 1.2263451341809959e-12 
2.7338050850193724e+01 -2.5756517787536609e+01 1.8591182654259754e-13 
-1.8531957449983295e+01 -2.1847349775789723e+01 -2.1325108910550582e-14 
2.7338050850193724e+01 -2.5756517787536609e+01 1.8591182654259754e-13 
-1.8531957449983295e+01 -2.1847349775789723e+01 -2.1325108910550582e-14 
9.2996341009649939e+01 -5.2320635563633687e+01 1.2891932417169453e-12 
-7.8752237870222359e+00 -1.4287851391349534e+01 1.0027446902570347e-16 
9.2996341009649939e+01 -5.2320635563633687e+01 1.2891932417169453e-12 
-7.8752237870222359e+00 -1.4287851391349534e+01 1.0027446902570347e-16 
2.7338050850193724e+01 -2.5756517787536609e+01 1.8591182654259754e-13 
-1.8531957449983295e+01 -2.1847349775789723e+01 -2.1325108910550582e-14 
9.2996341009649939e+01 -5.2320635563633687e+01 1.2891932417169453e-12 
-7.8752237870222359e+00 -1.4287851391349534e+01 1.0027446902570347e-16 
-2.0348089088844741e+01 -4.7041342356701591e+01 -1.6043130884773901e-14 
-2.0348089088844741e+01 -4.7041342356701591e+01 -1.6043130884773901e-14 
-1.9762925528132669e+01 -3.5575132209644096e+01 -1.0867269191620916e-19 
-1.9762925528132669e+01 -3.5575132209644096e+01 -1.0867269191620916e-19 
-2.0348089088844741e+01 -4.7041342356701591e+01 -1.6043130884773901e-14 
-1.9762925528132669e+01 -3.5575132209644096e+01 -1.0867269191620916e-19 
-5.2384392363470212e+01 -2.9724824489185451e+01 1.6292301152918884e-13 
-5.2384392363470212e+01 -2.9724824489185451e+01 1.6292301152918884e-13 
-6.3292977516982887e+01 2.7213342867187187e+01 1.2283838100312623e-12 
-2.7466496790658525e+01 -4.9451832419832741e+01 -8.2818027646705244e-17 
-6.3292977516982887e+01 2.7213342867187187e+01 1.2283838100312623e-12 
-2.7466496790658525e+01 -4.9451832419832741e+01 -8.2818027646705244e-17 
-5.2384392363470212e+01 -2.9724824489185451e+01 1.6292301152918884e-13 
-6.3292977516982887e+01 2.7213342867187187e+01 1.2283838100312623e-12 
-2.7466496790658539e+01 -4.9451832419832698e+01 -8.2818027656802664e-17 

