# vtk DataFile Version 2.0

ASCII

DATASET UNSTRUCTURED_GRID

POINTS 237 float 

-5.0000000000000003e-02  0.0000000000000000e+00  0.0000000000000000e+00
-5.0000000000000003e-02  5.5555555555555552e-02  0.0000000000000000e+00
-5.0000000000000003e-02  0.0000000000000000e+00  2.9999999999999999e-01
-5.0000000000000003e-02  5.5555555555555552e-02  2.9999999999999999e-01
-5.0000000000000003e-02  2.7777777777777776e-02  0.0000000000000000e+00
-5.0000000000000003e-02  2.7777777777777776e-02  2.9999999999999999e-01
-5.0000000000000003e-02  0.0000000000000000e+00  1.4999999999999999e-01
-5.0000000000000003e-02  5.5555555555555552e-02  1.4999999999999999e-01
-5.0000000000000003e-02  2.7777777777777776e-02  1.4999999999999999e-01
5.0000000000000003e-02  0.0000000000000000e+00  0.0000000000000000e+00
5.0000000000000003e-02  5.5555555555555552e-02  0.0000000000000000e+00
5.0000000000000003e-02  0.0000000000000000e+00  2.9999999999999999e-01
5.0000000000000003e-02  5.5555555555555552e-02  2.9999999999999999e-01
5.0000000000000003e-02  2.7777777777777776e-02  0.0000000000000000e+00
5.0000000000000003e-02  2.7777777777777776e-02  2.9999999999999999e-01
5.0000000000000003e-02  0.0000000000000000e+00  1.4999999999999999e-01
5.0000000000000003e-02  5.5555555555555552e-02  1.4999999999999999e-01
5.0000000000000003e-02  2.7777777777777776e-02  1.4999999999999999e-01
-5.0000000000000003e-02  1.1111111111111110e-01  0.0000000000000000e+00
-5.0000000000000003e-02  1.1111111111111110e-01  2.9999999999999999e-01
-5.0000000000000003e-02  8.3333333333333329e-02  0.0000000000000000e+00
-5.0000000000000003e-02  8.3333333333333329e-02  2.9999999999999999e-01
-5.0000000000000003e-02  1.1111111111111110e-01  1.4999999999999999e-01
-5.0000000000000003e-02  8.3333333333333329e-02  1.4999999999999999e-01
5.0000000000000003e-02  1.1111111111111110e-01  0.0000000000000000e+00
5.0000000000000003e-02  1.1111111111111110e-01  2.9999999999999999e-01
5.0000000000000003e-02  8.3333333333333329e-02  0.0000000000000000e+00
5.0000000000000003e-02  8.3333333333333329e-02  2.9999999999999999e-01
5.0000000000000003e-02  1.1111111111111110e-01  1.4999999999999999e-01
5.0000000000000003e-02  8.3333333333333329e-02  1.4999999999999999e-01
-5.0000000000000003e-02  1.6666666666666666e-01  0.0000000000000000e+00
-5.0000000000000003e-02  1.6666666666666666e-01  2.9999999999999999e-01
-5.0000000000000003e-02  1.3888888888888890e-01  0.0000000000000000e+00
-5.0000000000000003e-02  1.3888888888888890e-01  2.9999999999999999e-01
-5.0000000000000003e-02  1.6666666666666666e-01  1.4999999999999999e-01
-5.0000000000000003e-02  1.3888888888888890e-01  1.4999999999999999e-01
5.0000000000000003e-02  1.6666666666666666e-01  0.0000000000000000e+00
5.0000000000000003e-02  1.6666666666666666e-01  2.9999999999999999e-01
5.0000000000000003e-02  1.3888888888888890e-01  0.0000000000000000e+00
5.0000000000000003e-02  1.3888888888888890e-01  2.9999999999999999e-01
5.0000000000000003e-02  1.6666666666666666e-01  1.4999999999999999e-01
5.0000000000000003e-02  1.3888888888888890e-01  1.4999999999999999e-01
-5.0000000000000003e-02  2.2222222222222221e-01  0.0000000000000000e+00
-5.0000000000000003e-02  2.2222222222222221e-01  2.9999999999999999e-01
-5.0000000000000003e-02  1.9444444444444442e-01  0.0000000000000000e+00
-5.0000000000000003e-02  1.9444444444444442e-01  2.9999999999999999e-01
-5.0000000000000003e-02  2.2222222222222221e-01  1.4999999999999999e-01
-5.0000000000000003e-02  1.9444444444444442e-01  1.4999999999999999e-01
5.0000000000000003e-02  2.2222222222222221e-01  0.0000000000000000e+00
5.0000000000000003e-02  2.2222222222222221e-01  2.9999999999999999e-01
5.0000000000000003e-02  1.9444444444444442e-01  0.0000000000000000e+00
5.0000000000000003e-02  1.9444444444444442e-01  2.9999999999999999e-01
5.0000000000000003e-02  2.2222222222222221e-01  1.4999999999999999e-01
5.0000000000000003e-02  1.9444444444444442e-01  1.4999999999999999e-01
-5.0000000000000003e-02  2.7777777777777779e-01  0.0000000000000000e+00
-5.0000000000000003e-02  2.7777777777777779e-01  2.9999999999999999e-01
-5.0000000000000003e-02  2.5000000000000000e-01  0.0000000000000000e+00
-5.0000000000000003e-02  2.5000000000000000e-01  2.9999999999999999e-01
-5.0000000000000003e-02  2.7777777777777779e-01  1.4999999999999999e-01
-5.0000000000000003e-02  2.5000000000000000e-01  1.4999999999999999e-01
5.0000000000000003e-02  2.7777777777777779e-01  0.0000000000000000e+00
5.0000000000000003e-02  2.7777777777777779e-01  2.9999999999999999e-01
5.0000000000000003e-02  2.5000000000000000e-01  0.0000000000000000e+00
5.0000000000000003e-02  2.5000000000000000e-01  2.9999999999999999e-01
5.0000000000000003e-02  2.7777777777777779e-01  1.4999999999999999e-01
5.0000000000000003e-02  2.5000000000000000e-01  1.4999999999999999e-01
-5.0000000000000003e-02  3.3333333333333331e-01  0.0000000000000000e+00
-5.0000000000000003e-02  3.3333333333333331e-01  2.9999999999999999e-01
-5.0000000000000003e-02  3.0555555555555558e-01  0.0000000000000000e+00
-5.0000000000000003e-02  3.0555555555555558e-01  2.9999999999999999e-01
-5.0000000000000003e-02  3.3333333333333331e-01  1.4999999999999999e-01
-5.0000000000000003e-02  3.0555555555555558e-01  1.4999999999999999e-01
5.0000000000000003e-02  3.3333333333333331e-01  0.0000000000000000e+00
5.0000000000000003e-02  3.3333333333333331e-01  2.9999999999999999e-01
5.0000000000000003e-02  3.0555555555555558e-01  0.0000000000000000e+00
5.0000000000000003e-02  3.0555555555555558e-01  2.9999999999999999e-01
5.0000000000000003e-02  3.3333333333333331e-01  1.4999999999999999e-01
5.0000000000000003e-02  3.0555555555555558e-01  1.4999999999999999e-01
-5.0000000000000003e-02  3.8888888888888884e-01  0.0000000000000000e+00
-5.0000000000000003e-02  3.8888888888888884e-01  2.9999999999999999e-01
-5.0000000000000003e-02  3.6111111111111105e-01  0.0000000000000000e+00
-5.0000000000000003e-02  3.6111111111111105e-01  2.9999999999999999e-01
-5.0000000000000003e-02  3.8888888888888884e-01  1.4999999999999999e-01
-5.0000000000000003e-02  3.6111111111111105e-01  1.4999999999999999e-01
5.0000000000000003e-02  3.8888888888888884e-01  0.0000000000000000e+00
5.0000000000000003e-02  3.8888888888888884e-01  2.9999999999999999e-01
5.0000000000000003e-02  3.6111111111111105e-01  0.0000000000000000e+00
5.0000000000000003e-02  3.6111111111111105e-01  2.9999999999999999e-01
5.0000000000000003e-02  3.8888888888888884e-01  1.4999999999999999e-01
5.0000000000000003e-02  3.6111111111111105e-01  1.4999999999999999e-01
-5.0000000000000003e-02  4.4444444444444442e-01  0.0000000000000000e+00
-5.0000000000000003e-02  4.4444444444444442e-01  2.9999999999999999e-01
-5.0000000000000003e-02  4.1666666666666663e-01  0.0000000000000000e+00
-5.0000000000000003e-02  4.1666666666666663e-01  2.9999999999999999e-01
-5.0000000000000003e-02  4.4444444444444442e-01  1.4999999999999999e-01
-5.0000000000000003e-02  4.1666666666666663e-01  1.4999999999999999e-01
5.0000000000000003e-02  4.4444444444444442e-01  0.0000000000000000e+00
5.0000000000000003e-02  4.4444444444444442e-01  2.9999999999999999e-01
5.0000000000000003e-02  4.1666666666666663e-01  0.0000000000000000e+00
5.0000000000000003e-02  4.1666666666666663e-01  2.9999999999999999e-01
5.0000000000000003e-02  4.4444444444444442e-01  1.4999999999999999e-01
5.0000000000000003e-02  4.1666666666666663e-01  1.4999999999999999e-01
-5.0000000000000003e-02  5.0000000000000000e-01  0.0000000000000000e+00
-5.0000000000000003e-02  5.0000000000000000e-01  2.9999999999999999e-01
-5.0000000000000003e-02  4.7222222222222221e-01  0.0000000000000000e+00
-5.0000000000000003e-02  4.7222222222222221e-01  2.9999999999999999e-01
-5.0000000000000003e-02  5.0000000000000000e-01  1.4999999999999999e-01
-5.0000000000000003e-02  4.7222222222222221e-01  1.4999999999999999e-01
5.0000000000000003e-02  5.0000000000000000e-01  0.0000000000000000e+00
5.0000000000000003e-02  5.0000000000000000e-01  2.9999999999999999e-01
5.0000000000000003e-02  4.7222222222222221e-01  0.0000000000000000e+00
5.0000000000000003e-02  4.7222222222222221e-01  2.9999999999999999e-01
5.0000000000000003e-02  5.0000000000000000e-01  1.4999999999999999e-01
5.0000000000000003e-02  4.7222222222222221e-01  1.4999999999999999e-01
-5.0000000000000003e-02  5.5555555555555558e-01  0.0000000000000000e+00
-5.0000000000000003e-02  5.5555555555555558e-01  2.9999999999999999e-01
-5.0000000000000003e-02  5.2777777777777779e-01  0.0000000000000000e+00
-5.0000000000000003e-02  5.2777777777777779e-01  2.9999999999999999e-01
-5.0000000000000003e-02  5.5555555555555558e-01  1.4999999999999999e-01
-5.0000000000000003e-02  5.2777777777777779e-01  1.4999999999999999e-01
5.0000000000000003e-02  5.5555555555555558e-01  0.0000000000000000e+00
5.0000000000000003e-02  5.5555555555555558e-01  2.9999999999999999e-01
5.0000000000000003e-02  5.2777777777777779e-01  0.0000000000000000e+00
5.0000000000000003e-02  5.2777777777777779e-01  2.9999999999999999e-01
5.0000000000000003e-02  5.5555555555555558e-01  1.4999999999999999e-01
5.0000000000000003e-02  5.2777777777777779e-01  1.4999999999999999e-01
-5.0000000000000003e-02  6.1111111111111105e-01  0.0000000000000000e+00
-5.0000000000000003e-02  6.1111111111111105e-01  2.9999999999999999e-01
-5.0000000000000003e-02  5.8333333333333326e-01  0.0000000000000000e+00
-5.0000000000000003e-02  5.8333333333333326e-01  2.9999999999999999e-01
-5.0000000000000003e-02  6.1111111111111105e-01  1.4999999999999999e-01
-5.0000000000000003e-02  5.8333333333333326e-01  1.4999999999999999e-01
5.0000000000000003e-02  6.1111111111111105e-01  0.0000000000000000e+00
5.0000000000000003e-02  6.1111111111111105e-01  2.9999999999999999e-01
5.0000000000000003e-02  5.8333333333333326e-01  0.0000000000000000e+00
5.0000000000000003e-02  5.8333333333333326e-01  2.9999999999999999e-01
5.0000000000000003e-02  6.1111111111111105e-01  1.4999999999999999e-01
5.0000000000000003e-02  5.8333333333333326e-01  1.4999999999999999e-01
-5.0000000000000003e-02  6.6666666666666663e-01  0.0000000000000000e+00
-5.0000000000000003e-02  6.6666666666666663e-01  2.9999999999999999e-01
-5.0000000000000003e-02  6.3888888888888884e-01  0.0000000000000000e+00
-5.0000000000000003e-02  6.3888888888888884e-01  2.9999999999999999e-01
-5.0000000000000003e-02  6.6666666666666663e-01  1.4999999999999999e-01
-5.0000000000000003e-02  6.3888888888888884e-01  1.4999999999999999e-01
5.0000000000000003e-02  6.6666666666666663e-01  0.0000000000000000e+00
5.0000000000000003e-02  6.6666666666666663e-01  2.9999999999999999e-01
5.0000000000000003e-02  6.3888888888888884e-01  0.0000000000000000e+00
5.0000000000000003e-02  6.3888888888888884e-01  2.9999999999999999e-01
5.0000000000000003e-02  6.6666666666666663e-01  1.4999999999999999e-01
5.0000000000000003e-02  6.3888888888888884e-01  1.4999999999999999e-01
-5.0000000000000003e-02  7.2222222222222221e-01  0.0000000000000000e+00
-5.0000000000000003e-02  7.2222222222222221e-01  2.9999999999999999e-01
-5.0000000000000003e-02  6.9444444444444442e-01  0.0000000000000000e+00
-5.0000000000000003e-02  6.9444444444444442e-01  2.9999999999999999e-01
-5.0000000000000003e-02  7.2222222222222221e-01  1.4999999999999999e-01
-5.0000000000000003e-02  6.9444444444444442e-01  1.4999999999999999e-01
5.0000000000000003e-02  7.2222222222222221e-01  0.0000000000000000e+00
5.0000000000000003e-02  7.2222222222222221e-01  2.9999999999999999e-01
5.0000000000000003e-02  6.9444444444444442e-01  0.0000000000000000e+00
5.0000000000000003e-02  6.9444444444444442e-01  2.9999999999999999e-01
5.0000000000000003e-02  7.2222222222222221e-01  1.4999999999999999e-01
5.0000000000000003e-02  6.9444444444444442e-01  1.4999999999999999e-01
-5.0000000000000003e-02  7.7777777777777768e-01  0.0000000000000000e+00
-5.0000000000000003e-02  7.7777777777777768e-01  2.9999999999999999e-01
-5.0000000000000003e-02  7.5000000000000000e-01  0.0000000000000000e+00
-5.0000000000000003e-02  7.5000000000000000e-01  2.9999999999999999e-01
-5.0000000000000003e-02  7.7777777777777768e-01  1.4999999999999999e-01
-5.0000000000000003e-02  7.5000000000000000e-01  1.4999999999999999e-01
5.0000000000000003e-02  7.7777777777777768e-01  0.0000000000000000e+00
5.0000000000000003e-02  7.7777777777777768e-01  2.9999999999999999e-01
5.0000000000000003e-02  7.5000000000000000e-01  0.0000000000000000e+00
5.0000000000000003e-02  7.5000000000000000e-01  2.9999999999999999e-01
5.0000000000000003e-02  7.7777777777777768e-01  1.4999999999999999e-01
5.0000000000000003e-02  7.5000000000000000e-01  1.4999999999999999e-01
-5.0000000000000003e-02  8.3333333333333326e-01  0.0000000000000000e+00
-5.0000000000000003e-02  8.3333333333333326e-01  2.9999999999999999e-01
-5.0000000000000003e-02  8.0555555555555547e-01  0.0000000000000000e+00
-5.0000000000000003e-02  8.0555555555555547e-01  2.9999999999999999e-01
-5.0000000000000003e-02  8.3333333333333326e-01  1.4999999999999999e-01
-5.0000000000000003e-02  8.0555555555555536e-01  1.4999999999999999e-01
5.0000000000000003e-02  8.3333333333333326e-01  0.0000000000000000e+00
5.0000000000000003e-02  8.3333333333333326e-01  2.9999999999999999e-01
5.0000000000000003e-02  8.0555555555555547e-01  0.0000000000000000e+00
5.0000000000000003e-02  8.0555555555555547e-01  2.9999999999999999e-01
5.0000000000000003e-02  8.3333333333333326e-01  1.4999999999999999e-01
5.0000000000000003e-02  8.0555555555555536e-01  1.4999999999999999e-01
-5.0000000000000003e-02  8.8888888888888884e-01  0.0000000000000000e+00
-5.0000000000000003e-02  8.8888888888888884e-01  2.9999999999999999e-01
-5.0000000000000003e-02  8.6111111111111105e-01  0.0000000000000000e+00
-5.0000000000000003e-02  8.6111111111111105e-01  2.9999999999999999e-01
-5.0000000000000003e-02  8.8888888888888884e-01  1.4999999999999999e-01
-5.0000000000000003e-02  8.6111111111111105e-01  1.4999999999999999e-01
5.0000000000000003e-02  8.8888888888888884e-01  0.0000000000000000e+00
5.0000000000000003e-02  8.8888888888888884e-01  2.9999999999999999e-01
5.0000000000000003e-02  8.6111111111111105e-01  0.0000000000000000e+00
5.0000000000000003e-02  8.6111111111111105e-01  2.9999999999999999e-01
5.0000000000000003e-02  8.8888888888888884e-01  1.4999999999999999e-01
5.0000000000000003e-02  8.6111111111111105e-01  1.4999999999999999e-01
-5.0000000000000003e-02  9.4444444444444442e-01  0.0000000000000000e+00
-5.0000000000000003e-02  9.4444444444444442e-01  2.9999999999999999e-01
-5.0000000000000003e-02  9.1666666666666663e-01  0.0000000000000000e+00
-5.0000000000000003e-02  9.1666666666666663e-01  2.9999999999999999e-01
-5.0000000000000003e-02  9.4444444444444442e-01  1.4999999999999999e-01
-5.0000000000000003e-02  9.1666666666666674e-01  1.4999999999999999e-01
5.0000000000000003e-02  9.4444444444444442e-01  0.0000000000000000e+00
5.0000000000000003e-02  9.4444444444444442e-01  2.9999999999999999e-01
5.0000000000000003e-02  9.1666666666666663e-01  0.0000000000000000e+00
5.0000000000000003e-02  9.1666666666666663e-01  2.9999999999999999e-01
5.0000000000000003e-02  9.4444444444444442e-01  1.4999999999999999e-01
5.0000000000000003e-02  9.1666666666666674e-01  1.4999999999999999e-01
-5.0000000000000003e-02  1.0000000000000000e+00  0.0000000000000000e+00
-1.6666666666666670e-02  1.0000000000000000e+00  0.0000000000000000e+00
-5.0000000000000003e-02  1.0000000000000000e+00  2.9999999999999999e-01
-1.6666666666666670e-02  1.0000000000000000e+00  2.9999999999999999e-01
-5.0000000000000003e-02  9.7222222222222221e-01  0.0000000000000000e+00
-3.3333333333333340e-02  1.0000000000000000e+00  0.0000000000000000e+00
-5.0000000000000003e-02  9.7222222222222221e-01  2.9999999999999999e-01
-3.3333333333333340e-02  1.0000000000000000e+00  2.9999999999999999e-01
-5.0000000000000003e-02  1.0000000000000000e+00  1.4999999999999999e-01
-1.6666666666666670e-02  1.0000000000000000e+00  1.4999999999999999e-01
-5.0000000000000003e-02  9.7222222222222221e-01  1.4999999999999999e-01
-3.3333333333333340e-02  1.0000000000000000e+00  1.4999999999999999e-01
1.6666666666666663e-02  1.0000000000000000e+00  0.0000000000000000e+00
1.6666666666666663e-02  1.0000000000000000e+00  2.9999999999999999e-01
-3.4694469519536142e-18  1.0000000000000000e+00  0.0000000000000000e+00
-3.4694469519536142e-18  1.0000000000000000e+00  2.9999999999999999e-01
1.6666666666666663e-02  1.0000000000000000e+00  1.4999999999999999e-01
-3.4694469519536142e-18  1.0000000000000000e+00  1.4999999999999999e-01
5.0000000000000003e-02  1.0000000000000000e+00  0.0000000000000000e+00
5.0000000000000003e-02  1.0000000000000000e+00  2.9999999999999999e-01
5.0000000000000003e-02  9.7222222222222221e-01  0.0000000000000000e+00
3.3333333333333333e-02  1.0000000000000000e+00  0.0000000000000000e+00
5.0000000000000003e-02  9.7222222222222221e-01  2.9999999999999999e-01
3.3333333333333333e-02  1.0000000000000000e+00  2.9999999999999999e-01
5.0000000000000003e-02  1.0000000000000000e+00  1.4999999999999999e-01
5.0000000000000003e-02  9.7222222222222221e-01  1.4999999999999999e-01
3.3333333333333333e-02  1.0000000000000000e+00  1.4999999999999999e-01

CELLS 0 0


CELL_TYPES 0


POINT_DATA 237

VECTORS VertexNormals float

0.0000000000000000e+00 0.0000000000000000e+00 0.0000000000000000e+00 
0.0000000000000000e+00 0.0000000000000000e+00 0.0000000000000000e+00 
0.0000000000000000e+00 0.0000000000000000e+00 0.0000000000000000e+00 
0.0000000000000000e+00 0.0000000000000000e+00 0.0000000000000000e+00 
0.0000000000000000e+00 0.0000000000000000e+00 0.0000000000000000e+00 
0.0000000000000000e+00 0.0000000000000000e+00 0.0000000000000000e+00 
0.0000000000000000e+00 0.0000000000000000e+00 0.0000000000000000e+00 
0.0000000000000000e+00 0.0000000000000000e+00 0.0000000000000000e+00 
0.0000000000000000e+00 0.0000000000000000e+00 0.0000000000000000e+00 
0.0000000000000000e+00 0.0000000000000000e+00 0.0000000000000000e+00 
0.0000000000000000e+00 0.0000000000000000e+00 0.0000000000000000e+00 
0.0000000000000000e+00 0.0000000000000000e+00 0.0000000000000000e+00 
0.0000000000000000e+00 0.0000000000000000e+00 0.0000000000000000e+00 
0.0000000000000000e+00 0.0000000000000000e+00 0.0000000000000000e+00 
0.0000000000000000e+00 0.0000000000000000e+00 0.0000000000000000e+00 
0.0000000000000000e+00 0.0000000000000000e+00 0.0000000000000000e+00 
0.0000000000000000e+00 0.0000000000000000e+00 0.0000000000000000e+00 
0.0000000000000000e+00 0.0000000000000000e+00 0.0000000000000000e+00 
0.0000000000000000e+00 0.0000000000000000e+00 0.0000000000000000e+00 
0.0000000000000000e+00 0.0000000000000000e+00 0.0000000000000000e+00 
0.0000000000000000e+00 0.0000000000000000e+00 0.0000000000000000e+00 
0.0000000000000000e+00 0.0000000000000000e+00 0.0000000000000000e+00 
0.0000000000000000e+00 0.0000000000000000e+00 0.0000000000000000e+00 
0.0000000000000000e+00 0.0000000000000000e+00 0.0000000000000000e+00 
0.0000000000000000e+00 0.0000000000000000e+00 0.0000000000000000e+00 
0.0000000000000000e+00 0.0000000000000000e+00 0.0000000000000000e+00 
0.0000000000000000e+00 0.0000000000000000e+00 0.0000000000000000e+00 
0.0000000000000000e+00 0.0000000000000000e+00 0.0000000000000000e+00 
0.0000000000000000e+00 0.0000000000000000e+00 0.0000000000000000e+00 
0.0000000000000000e+00 0.0000000000000000e+00 0.0000000000000000e+00 
0.0000000000000000e+00 0.0000000000000000e+00 0.0000000000000000e+00 
0.0000000000000000e+00 0.0000000000000000e+00 0.0000000000000000e+00 
0.0000000000000000e+00 0.0000000000000000e+00 0.0000000000000000e+00 
0.0000000000000000e+00 0.0000000000000000e+00 0.0000000000000000e+00 
0.0000000000000000e+00 0.0000000000000000e+00 0.0000000000000000e+00 
0.0000000000000000e+00 0.0000000000000000e+00 0.0000000000000000e+00 
0.0000000000000000e+00 0.0000000000000000e+00 0.0000000000000000e+00 
0.0000000000000000e+00 0.0000000000000000e+00 0.0000000000000000e+00 
0.0000000000000000e+00 0.0000000000000000e+00 0.0000000000000000e+00 
0.0000000000000000e+00 0.0000000000000000e+00 0.0000000000000000e+00 
0.0000000000000000e+00 0.0000000000000000e+00 0.0000000000000000e+00 
0.0000000000000000e+00 0.0000000000000000e+00 0.0000000000000000e+00 
0.0000000000000000e+00 0.0000000000000000e+00 0.0000000000000000e+00 
0.0000000000000000e+00 0.0000000000000000e+00 0.0000000000000000e+00 
0.0000000000000000e+00 0.0000000000000000e+00 0.0000000000000000e+00 
0.0000000000000000e+00 0.0000000000000000e+00 0.0000000000000000e+00 
0.0000000000000000e+00 0.0000000000000000e+00 0.0000000000000000e+00 
0.0000000000000000e+00 0.0000000000000000e+00 0.0000000000000000e+00 
0.0000000000000000e+00 0.0000000000000000e+00 0.0000000000000000e+00 
0.0000000000000000e+00 0.0000000000000000e+00 0.0000000000000000e+00 
0.0000000000000000e+00 0.0000000000000000e+00 0.0000000000000000e+00 
0.0000000000000000e+00 0.0000000000000000e+00 0.0000000000000000e+00 
0.0000000000000000e+00 0.0000000000000000e+00 0.0000000000000000e+00 
0.0000000000000000e+00 0.0000000000000000e+00 0.0000000000000000e+00 
0.0000000000000000e+00 0.0000000000000000e+00 0.0000000000000000e+00 
0.0000000000000000e+00 0.0000000000000000e+00 0.0000000000000000e+00 
0.0000000000000000e+00 0.0000000000000000e+00 0.0000000000000000e+00 
0.0000000000000000e+00 0.0000000000000000e+00 0.0000000000000000e+00 
0.0000000000000000e+00 0.0000000000000000e+00 0.0000000000000000e+00 
0.0000000000000000e+00 0.0000000000000000e+00 0.0000000000000000e+00 
0.0000000000000000e+00 0.0000000000000000e+00 0.0000000000000000e+00 
0.0000000000000000e+00 0.0000000000000000e+00 0.0000000000000000e+00 
0.0000000000000000e+00 0.0000000000000000e+00 0.0000000000000000e+00 
0.0000000000000000e+00 0.0000000000000000e+00 0.0000000000000000e+00 
0.0000000000000000e+00 0.0000000000000000e+00 0.0000000000000000e+00 
0.0000000000000000e+00 0.0000000000000000e+00 0.0000000000000000e+00 
0.0000000000000000e+00 0.0000000000000000e+00 0.0000000000000000e+00 
0.0000000000000000e+00 0.0000000000000000e+00 0.0000000000000000e+00 
0.0000000000000000e+00 0.0000000000000000e+00 0.0000000000000000e+00 
0.0000000000000000e+00 0.0000000000000000e+00 0.0000000000000000e+00 
0.0000000000000000e+00 0.0000000000000000e+00 0.0000000000000000e+00 
0.0000000000000000e+00 0.0000000000000000e+00 0.0000000000000000e+00 
0.0000000000000000e+00 0.0000000000000000e+00 0.0000000000000000e+00 
0.0000000000000000e+00 0.0000000000000000e+00 0.0000000000000000e+00 
0.0000000000000000e+00 0.0000000000000000e+00 0.0000000000000000e+00 
0.0000000000000000e+00 0.0000000000000000e+00 0.0000000000000000e+00 
0.0000000000000000e+00 0.0000000000000000e+00 0.0000000000000000e+00 
0.0000000000000000e+00 0.0000000000000000e+00 0.0000000000000000e+00 
0.0000000000000000e+00 0.0000000000000000e+00 0.0000000000000000e+00 
0.0000000000000000e+00 0.0000000000000000e+00 0.0000000000000000e+00 
0.0000000000000000e+00 0.0000000000000000e+00 0.0000000000000000e+00 
0.0000000000000000e+00 0.0000000000000000e+00 0.0000000000000000e+00 
0.0000000000000000e+00 0.0000000000000000e+00 0.0000000000000000e+00 
0.0000000000000000e+00 0.0000000000000000e+00 0.0000000000000000e+00 
0.0000000000000000e+00 0.0000000000000000e+00 0.0000000000000000e+00 
0.0000000000000000e+00 0.0000000000000000e+00 0.0000000000000000e+00 
0.0000000000000000e+00 0.0000000000000000e+00 0.0000000000000000e+00 
0.0000000000000000e+00 0.0000000000000000e+00 0.0000000000000000e+00 
0.0000000000000000e+00 0.0000000000000000e+00 0.0000000000000000e+00 
0.0000000000000000e+00 0.0000000000000000e+00 0.0000000000000000e+00 
0.0000000000000000e+00 0.0000000000000000e+00 0.0000000000000000e+00 
0.0000000000000000e+00 0.0000000000000000e+00 0.0000000000000000e+00 
0.0000000000000000e+00 0.0000000000000000e+00 0.0000000000000000e+00 
0.0000000000000000e+00 0.0000000000000000e+00 0.0000000000000000e+00 
0.0000000000000000e+00 0.0000000000000000e+00 0.0000000000000000e+00 
0.0000000000000000e+00 0.0000000000000000e+00 0.0000000000000000e+00 
0.0000000000000000e+00 0.0000000000000000e+00 0.0000000000000000e+00 
0.0000000000000000e+00 0.0000000000000000e+00 0.0000000000000000e+00 
0.0000000000000000e+00 0.0000000000000000e+00 0.0000000000000000e+00 
0.0000000000000000e+00 0.0000000000000000e+00 0.0000000000000000e+00 
0.0000000000000000e+00 0.0000000000000000e+00 0.0000000000000000e+00 
0.0000000000000000e+00 0.0000000000000000e+00 0.0000000000000000e+00 
0.0000000000000000e+00 0.0000000000000000e+00 0.0000000000000000e+00 
0.0000000000000000e+00 0.0000000000000000e+00 0.0000000000000000e+00 
0.0000000000000000e+00 0.0000000000000000e+00 0.0000000000000000e+00 
0.0000000000000000e+00 0.0000000000000000e+00 0.0000000000000000e+00 
0.0000000000000000e+00 0.0000000000000000e+00 0.0000000000000000e+00 
0.0000000000000000e+00 0.0000000000000000e+00 0.0000000000000000e+00 
0.0000000000000000e+00 0.0000000000000000e+00 0.0000000000000000e+00 
0.0000000000000000e+00 0.0000000000000000e+00 0.0000000000000000e+00 
0.0000000000000000e+00 0.0000000000000000e+00 0.0000000000000000e+00 
0.0000000000000000e+00 0.0000000000000000e+00 0.0000000000000000e+00 
0.0000000000000000e+00 0.0000000000000000e+00 0.0000000000000000e+00 
0.0000000000000000e+00 0.0000000000000000e+00 0.0000000000000000e+00 
0.0000000000000000e+00 0.0000000000000000e+00 0.0000000000000000e+00 
0.0000000000000000e+00 0.0000000000000000e+00 0.0000000000000000e+00 
0.0000000000000000e+00 0.0000000000000000e+00 0.0000000000000000e+00 
0.0000000000000000e+00 0.0000000000000000e+00 0.0000000000000000e+00 
0.0000000000000000e+00 0.0000000000000000e+00 0.0000000000000000e+00 
0.0000000000000000e+00 0.0000000000000000e+00 0.0000000000000000e+00 
0.0000000000000000e+00 0.0000000000000000e+00 0.0000000000000000e+00 
0.0000000000000000e+00 0.0000000000000000e+00 0.0000000000000000e+00 
0.0000000000000000e+00 0.0000000000000000e+00 0.0000000000000000e+00 
0.0000000000000000e+00 0.0000000000000000e+00 0.0000000000000000e+00 
0.0000000000000000e+00 0.0000000000000000e+00 0.0000000000000000e+00 
0.0000000000000000e+00 0.0000000000000000e+00 0.0000000000000000e+00 
0.0000000000000000e+00 0.0000000000000000e+00 0.0000000000000000e+00 
0.0000000000000000e+00 0.0000000000000000e+00 0.0000000000000000e+00 
0.0000000000000000e+00 0.0000000000000000e+00 0.0000000000000000e+00 
0.0000000000000000e+00 0.0000000000000000e+00 0.0000000000000000e+00 
0.0000000000000000e+00 0.0000000000000000e+00 0.0000000000000000e+00 
0.0000000000000000e+00 0.0000000000000000e+00 0.0000000000000000e+00 
0.0000000000000000e+00 0.0000000000000000e+00 0.0000000000000000e+00 
0.0000000000000000e+00 0.0000000000000000e+00 0.0000000000000000e+00 
0.0000000000000000e+00 0.0000000000000000e+00 0.0000000000000000e+00 
0.0000000000000000e+00 0.0000000000000000e+00 0.0000000000000000e+00 
0.0000000000000000e+00 0.0000000000000000e+00 0.0000000000000000e+00 
0.0000000000000000e+00 0.0000000000000000e+00 0.0000000000000000e+00 
0.0000000000000000e+00 0.0000000000000000e+00 0.0000000000000000e+00 
0.0000000000000000e+00 0.0000000000000000e+00 0.0000000000000000e+00 
0.0000000000000000e+00 0.0000000000000000e+00 0.0000000000000000e+00 
0.0000000000000000e+00 0.0000000000000000e+00 0.0000000000000000e+00 
0.0000000000000000e+00 0.0000000000000000e+00 0.0000000000000000e+00 
0.0000000000000000e+00 0.0000000000000000e+00 0.0000000000000000e+00 
0.0000000000000000e+00 0.0000000000000000e+00 0.0000000000000000e+00 
0.0000000000000000e+00 0.0000000000000000e+00 0.0000000000000000e+00 
0.0000000000000000e+00 0.0000000000000000e+00 0.0000000000000000e+00 
0.0000000000000000e+00 0.0000000000000000e+00 0.0000000000000000e+00 
0.0000000000000000e+00 0.0000000000000000e+00 0.0000000000000000e+00 
0.0000000000000000e+00 0.0000000000000000e+00 0.0000000000000000e+00 
0.0000000000000000e+00 0.0000000000000000e+00 0.0000000000000000e+00 
0.0000000000000000e+00 0.0000000000000000e+00 0.0000000000000000e+00 
0.0000000000000000e+00 0.0000000000000000e+00 0.0000000000000000e+00 
0.0000000000000000e+00 0.0000000000000000e+00 0.0000000000000000e+00 
0.0000000000000000e+00 0.0000000000000000e+00 0.0000000000000000e+00 
0.0000000000000000e+00 0.0000000000000000e+00 0.0000000000000000e+00 
0.0000000000000000e+00 0.0000000000000000e+00 0.0000000000000000e+00 
0.0000000000000000e+00 0.0000000000000000e+00 0.0000000000000000e+00 
0.0000000000000000e+00 0.0000000000000000e+00 0.0000000000000000e+00 
0.0000000000000000e+00 0.0000000000000000e+00 0.0000000000000000e+00 
0.0000000000000000e+00 0.0000000000000000e+00 0.0000000000000000e+00 
0.0000000000000000e+00 0.0000000000000000e+00 0.0000000000000000e+00 
0.0000000000000000e+00 0.0000000000000000e+00 0.0000000000000000e+00 
0.0000000000000000e+00 0.0000000000000000e+00 0.0000000000000000e+00 
0.0000000000000000e+00 0.0000000000000000e+00 0.0000000000000000e+00 
0.0000000000000000e+00 0.0000000000000000e+00 0.0000000000000000e+00 
0.0000000000000000e+00 0.0000000000000000e+00 0.0000000000000000e+00 
0.0000000000000000e+00 0.0000000000000000e+00 0.0000000000000000e+00 
0.0000000000000000e+00 0.0000000000000000e+00 0.0000000000000000e+00 
0.0000000000000000e+00 0.0000000000000000e+00 0.0000000000000000e+00 
0.0000000000000000e+00 0.0000000000000000e+00 0.0000000000000000e+00 
0.0000000000000000e+00 0.0000000000000000e+00 0.0000000000000000e+00 
0.0000000000000000e+00 0.0000000000000000e+00 0.0000000000000000e+00 
0.0000000000000000e+00 0.0000000000000000e+00 0.0000000000000000e+00 
0.0000000000000000e+00 0.0000000000000000e+00 0.0000000000000000e+00 
0.0000000000000000e+00 0.0000000000000000e+00 0.0000000000000000e+00 
0.0000000000000000e+00 0.0000000000000000e+00 0.0000000000000000e+00 
0.0000000000000000e+00 0.0000000000000000e+00 0.0000000000000000e+00 
0.0000000000000000e+00 0.0000000000000000e+00 0.0000000000000000e+00 
0.0000000000000000e+00 0.0000000000000000e+00 0.0000000000000000e+00 
0.0000000000000000e+00 0.0000000000000000e+00 0.0000000000000000e+00 
0.0000000000000000e+00 0.0000000000000000e+00 0.0000000000000000e+00 
0.0000000000000000e+00 0.0000000000000000e+00 0.0000000000000000e+00 
0.0000000000000000e+00 0.0000000000000000e+00 0.0000000000000000e+00 
0.0000000000000000e+00 0.0000000000000000e+00 0.0000000000000000e+00 
0.0000000000000000e+00 0.0000000000000000e+00 0.0000000000000000e+00 
0.0000000000000000e+00 0.0000000000000000e+00 0.0000000000000000e+00 
0.0000000000000000e+00 0.0000000000000000e+00 0.0000000000000000e+00 
0.0000000000000000e+00 0.0000000000000000e+00 0.0000000000000000e+00 
0.0000000000000000e+00 0.0000000000000000e+00 0.0000000000000000e+00 
0.0000000000000000e+00 0.0000000000000000e+00 0.0000000000000000e+00 
0.0000000000000000e+00 0.0000000000000000e+00 0.0000000000000000e+00 
0.0000000000000000e+00 0.0000000000000000e+00 0.0000000000000000e+00 
0.0000000000000000e+00 0.0000000000000000e+00 0.0000000000000000e+00 
0.0000000000000000e+00 0.0000000000000000e+00 0.0000000000000000e+00 
0.0000000000000000e+00 0.0000000000000000e+00 0.0000000000000000e+00 
0.0000000000000000e+00 0.0000000000000000e+00 0.0000000000000000e+00 
0.0000000000000000e+00 0.0000000000000000e+00 0.0000000000000000e+00 
0.0000000000000000e+00 0.0000000000000000e+00 0.0000000000000000e+00 
0.0000000000000000e+00 0.0000000000000000e+00 0.0000000000000000e+00 
0.0000000000000000e+00 0.0000000000000000e+00 0.0000000000000000e+00 
0.0000000000000000e+00 0.0000000000000000e+00 0.0000000000000000e+00 
0.0000000000000000e+00 0.0000000000000000e+00 0.0000000000000000e+00 
0.0000000000000000e+00 0.0000000000000000e+00 0.0000000000000000e+00 
0.0000000000000000e+00 0.0000000000000000e+00 0.0000000000000000e+00 
0.0000000000000000e+00 0.0000000000000000e+00 0.0000000000000000e+00 
0.0000000000000000e+00 0.0000000000000000e+00 0.0000000000000000e+00 
0.0000000000000000e+00 0.0000000000000000e+00 0.0000000000000000e+00 
0.0000000000000000e+00 0.0000000000000000e+00 0.0000000000000000e+00 
0.0000000000000000e+00 0.0000000000000000e+00 0.0000000000000000e+00 
0.0000000000000000e+00 0.0000000000000000e+00 0.0000000000000000e+00 
0.0000000000000000e+00 0.0000000000000000e+00 0.0000000000000000e+00 
0.0000000000000000e+00 0.0000000000000000e+00 0.0000000000000000e+00 
0.0000000000000000e+00 0.0000000000000000e+00 0.0000000000000000e+00 
0.0000000000000000e+00 0.0000000000000000e+00 0.0000000000000000e+00 
0.0000000000000000e+00 0.0000000000000000e+00 0.0000000000000000e+00 
0.0000000000000000e+00 0.0000000000000000e+00 0.0000000000000000e+00 
0.0000000000000000e+00 0.0000000000000000e+00 0.0000000000000000e+00 
0.0000000000000000e+00 0.0000000000000000e+00 0.0000000000000000e+00 
0.0000000000000000e+00 0.0000000000000000e+00 0.0000000000000000e+00 
0.0000000000000000e+00 0.0000000000000000e+00 0.0000000000000000e+00 
0.0000000000000000e+00 0.0000000000000000e+00 0.0000000000000000e+00 
0.0000000000000000e+00 0.0000000000000000e+00 0.0000000000000000e+00 
0.0000000000000000e+00 0.0000000000000000e+00 0.0000000000000000e+00 
0.0000000000000000e+00 0.0000000000000000e+00 0.0000000000000000e+00 
0.0000000000000000e+00 0.0000000000000000e+00 0.0000000000000000e+00 
0.0000000000000000e+00 0.0000000000000000e+00 0.0000000000000000e+00 
0.0000000000000000e+00 0.0000000000000000e+00 0.0000000000000000e+00 
0.0000000000000000e+00 0.0000000000000000e+00 0.0000000000000000e+00 
0.0000000000000000e+00 0.0000000000000000e+00 0.0000000000000000e+00 
0.0000000000000000e+00 0.0000000000000000e+00 0.0000000000000000e+00 
0.0000000000000000e+00 0.0000000000000000e+00 0.0000000000000000e+00 
0.0000000000000000e+00 0.0000000000000000e+00 0.0000000000000000e+00 
0.0000000000000000e+00 0.0000000000000000e+00 0.0000000000000000e+00 
0.0000000000000000e+00 0.0000000000000000e+00 0.0000000000000000e+00 
0.0000000000000000e+00 0.0000000000000000e+00 0.0000000000000000e+00 
0.0000000000000000e+00 0.0000000000000000e+00 0.0000000000000000e+00 

VECTORS Displacement float
0.0000000000000000e+00 0.0000000000000000e+00 0.0000000000000000e+00 
2.2792827550970306e-03 2.9364991291002613e-03 0.0000000000000000e+00 
0.0000000000000000e+00 0.0000000000000000e+00 0.0000000000000000e+00 
2.2792800693361434e-03 2.9364909055851823e-03 0.0000000000000000e+00 
9.9063577901571860e-04 1.5039003841793223e-03 0.0000000000000000e+00 
9.9064196624494083e-04 1.5038869597247377e-03 0.0000000000000000e+00 
0.0000000000000000e+00 0.0000000000000000e+00 0.0000000000000000e+00 
2.2792856045905038e-03 2.9364961528424286e-03 1.3531101349640610e-09 
9.9063829937429604e-04 1.5038955499381672e-03 4.7651009368647746e-09 
0.0000000000000000e+00 0.0000000000000000e+00 0.0000000000000000e+00 
2.2009038948193130e-03 -3.0394042493809381e-03 0.0000000000000000e+00 
0.0000000000000000e+00 0.0000000000000000e+00 0.0000000000000000e+00 
2.2009188095820759e-03 -3.0394093920496201e-03 0.0000000000000000e+00 
9.2500966646908399e-04 -1.5299755885581196e-03 0.0000000000000000e+00 
9.2502330882494855e-04 -1.5299685173964773e-03 0.0000000000000000e+00 
0.0000000000000000e+00 0.0000000000000000e+00 0.0000000000000000e+00 
2.2009096570629683e-03 -3.0394001777309027e-03 -4.7135830889450549e-09 
9.2501085668015095e-04 -1.5299712676959867e-03 -3.3114644249005677e-09 
7.2728723722099205e-03 6.0060209578207870e-03 0.0000000000000000e+00 
7.2728721685234258e-03 6.0060158681960055e-03 0.0000000000000000e+00 
4.3575390186503162e-03 4.4516793381374035e-03 0.0000000000000000e+00 
4.3575352691194377e-03 4.4516591101245451e-03 0.0000000000000000e+00 
7.2728709794260740e-03 6.0060303106922331e-03 -1.6829884433172088e-09 
4.3575331330871561e-03 4.4516740285930334e-03 2.1047784927792983e-09 
7.3522475534779606e-03 -6.1052245568006727e-03 0.0000000000000000e+00 
7.3522522734510007e-03 -6.1052208991468834e-03 0.0000000000000000e+00 
4.3812100145389464e-03 -4.5939010835352682e-03 0.0000000000000000e+00 
4.3812321591889976e-03 -4.5938864474430983e-03 0.0000000000000000e+00 
7.3522430847750815e-03 -6.1052203694719042e-03 -1.2277599992752375e-09 
4.3812059099909897e-03 -4.5938938222626780e-03 -1.1058287613052806e-09 
1.5812955310888114e-02 8.9315409410191272e-03 0.0000000000000000e+00 
1.5812969733512414e-02 8.9315369529453445e-03 0.0000000000000000e+00 
1.1123046131580706e-02 7.4983521237059802e-03 0.0000000000000000e+00 
1.1123049333430602e-02 7.4983406378801559e-03 0.0000000000000000e+00 
1.5812954228160866e-02 8.9315375624722179e-03 -2.9961433290508418e-09 
1.1123050544045616e-02 7.4983525016098646e-03 1.7944931205155700e-09 
1.5697771852889380e-02 -9.0453982976185423e-03 0.0000000000000000e+00 
1.5697783934779865e-02 -9.0453900820438599e-03 0.0000000000000000e+00 
1.1099605804225626e-02 -7.5634565503290997e-03 0.0000000000000000e+00 
1.1099611044934683e-02 -7.5634438119102391e-03 0.0000000000000000e+00 
1.5697778143042639e-02 -9.0454020733897085e-03 3.4393518157727542e-10 
1.1099600147186384e-02 -7.5634596783212046e-03 1.5642546197981648e-09 
2.7454339824412956e-02 1.1753021501488572e-02 0.0000000000000000e+00 
2.7454340831431431e-02 1.1753010655821381e-02 0.0000000000000000e+00 
2.1221945523571741e-02 1.0343732651540356e-02 0.0000000000000000e+00 
2.1221947913911521e-02 1.0343717455702575e-02 0.0000000000000000e+00 
2.7454335842306658e-02 1.1753018449659224e-02 -7.1640304946658479e-10 
2.1221941995489095e-02 1.0343728202573513e-02 1.1609260487258801e-10 
2.7532662985789103e-02 -1.1950153594547432e-02 0.0000000000000000e+00 
2.7532654191657201e-02 -1.1950137342629546e-02 0.0000000000000000e+00 
2.1195178660506308e-02 -1.0526198902090078e-02 0.0000000000000000e+00 
2.1195183829837747e-02 -1.0526172650852563e-02 0.0000000000000000e+00 
2.7532660279225522e-02 -1.1950151381569449e-02 8.3151247455804435e-10 
2.1195168593614658e-02 -1.0526193730191811e-02 -3.2628806464726173e-10 
4.2374565789720944e-02 1.4330880328263011e-02 0.0000000000000000e+00 
4.2374545653488069e-02 1.4330873916325898e-02 0.0000000000000000e+00 
3.4555592975804884e-02 1.3086906381414493e-02 0.0000000000000000e+00 
3.4555571223437095e-02 1.3086883438817538e-02 0.0000000000000000e+00 
4.2374555649712431e-02 1.4330881983331304e-02 -4.3334000904249700e-09 
3.4555585499432211e-02 1.3086896092354743e-02 -9.7309941778608726e-10 
4.2296175171833213e-02 -1.4525871993323565e-02 0.0000000000000000e+00 
4.2296163725688445e-02 -1.4525886744842531e-02 0.0000000000000000e+00 
3.4580004579803980e-02 -1.3260105349837140e-02 0.0000000000000000e+00 
3.4579978803885483e-02 -1.3260097140557224e-02 0.0000000000000000e+00 
4.2296181723476871e-02 -1.4525878429226438e-02 2.3267649279338006e-09 
3.4579985387097299e-02 -1.3260100752909367e-02 3.2183855890590718e-09 
5.9861825774389407e-02 1.6704525657330122e-02 0.0000000000000000e+00 
5.9861805837551157e-02 1.6704533521473483e-02 0.0000000000000000e+00 
5.0800370844870830e-02 1.5520772987594678e-02 0.0000000000000000e+00 
5.0800336654906936e-02 1.5520762297386746e-02 0.0000000000000000e+00 
5.9861815171655411e-02 1.6704541096698063e-02 -2.7922209171482368e-10 
5.0800357686892117e-02 1.5520771615775107e-02 5.1081586733387995e-10 
5.9953199846945006e-02 -1.7018892332250141e-02 0.0000000000000000e+00 
5.9953178321744710e-02 -1.7018898226074698e-02 0.0000000000000000e+00 
5.0752478561987155e-02 -1.5792111895690096e-02 0.0000000000000000e+00 
5.0752474188841587e-02 -1.5792110588010336e-02 0.0000000000000000e+00 
5.9953196832307751e-02 -1.7018892962909985e-02 -4.9628785988137416e-10 
5.0752479661819734e-02 -1.5792107448161695e-02 -9.3699486073484143e-10 
8.0025494180600371e-02 1.9017555129931807e-02 0.0000000000000000e+00 
8.0025516294763843e-02 1.9017579970625295e-02 0.0000000000000000e+00 
6.9584942690200574e-02 1.7883650453450018e-02 0.0000000000000000e+00 
6.9584924272309473e-02 1.7883662975379383e-02 0.0000000000000000e+00 
8.0025505700712055e-02 1.9017575041847271e-02 4.0186613193365386e-09 
6.9584929607262064e-02 1.7883665059674241e-02 3.9430848017594610e-09 
8.0033082358258872e-02 -1.9358106518925160e-02 0.0000000000000000e+00 
8.0033103669476219e-02 -1.9358127750407763e-02 0.0000000000000000e+00 
6.9694119810261745e-02 -1.8188551752395293e-02 0.0000000000000000e+00 
6.9694095769329723e-02 -1.8188559948150523e-02 0.0000000000000000e+00 
8.0033094029540508e-02 -1.9358127052675728e-02 -3.5581259423192392e-09 
6.9694085693449453e-02 -1.8188555626483346e-02 -3.0495973875081797e-09 
1.0281717290568865e-01 2.0989322352107508e-02 0.0000000000000000e+00 
1.0281720413268863e-01 2.0989323935414958e-02 0.0000000000000000e+00 
9.1151050110423945e-02 2.0056936992490355e-02 0.0000000000000000e+00 
9.1151090379043481e-02 2.0056940994048617e-02 0.0000000000000000e+00 
1.0281719170580067e-01 2.0989331416121530e-02 6.9765850426765642e-09 
9.1151057076783282e-02 2.0056942250426653e-02 6.7917478737094237e-09 
1.0289296510444523e-01 -2.1552798450326455e-02 0.0000000000000000e+00 
1.0289300106550356e-01 -2.1552781970568931e-02 0.0000000000000000e+00 
9.1128741767480592e-02 -2.0518247294244542e-02 0.0000000000000000e+00 
9.1128793633489164e-02 -2.0518244161202768e-02 0.0000000000000000e+00 
1.0289298616187016e-01 -2.1552795650173744e-02 -6.4541018245694625e-09 
9.1128754948077456e-02 -2.0518249006269612e-02 -8.0345912762660517e-09 
1.2767067585595263e-01 2.2450501955656531e-02 0.0000000000000000e+00 
1.2767066027047932e-01 2.2450500389688682e-02 0.0000000000000000e+00 
1.1501179083792060e-01 2.1788265780965606e-02 0.0000000000000000e+00 
1.1501178949331974e-01 2.1788249181583424e-02 0.0000000000000000e+00 
1.2767066075480560e-01 2.2450495250125019e-02 -1.7761240235392651e-09 
1.1501180273111153e-01 2.1788255780235910e-02 3.7330043838742422e-09 
1.2770624539325989e-01 -2.3077619987903530e-02 0.0000000000000000e+00 
1.2770622492098169e-01 -2.3077627000885725e-02 0.0000000000000000e+00 
1.1515059649179182e-01 -2.2372437375073415e-02 0.0000000000000000e+00 
1.1515058904543199e-01 -2.2372414263283021e-02 0.0000000000000000e+00 
1.2770623547212789e-01 -2.3077628850635318e-02 -1.5838755261679277e-09 
1.1515058749960183e-01 -2.2372426297703710e-02 -2.5682606016766531e-09 
1.5380316322686530e-01 2.3476546760698380e-02 0.0000000000000000e+00 
1.5380316752084100e-01 2.3476564861571951e-02 0.0000000000000000e+00 
1.4062363100074071e-01 2.2983450332101432e-02 0.0000000000000000e+00 
1.4062360473203911e-01 2.2983459905584348e-02 0.0000000000000000e+00 
1.5380315621668472e-01 2.3476564834946607e-02 -3.8039589366604626e-09 
1.4062360245457761e-01 2.2983454095417809e-02 -2.2909686724683021e-09 
1.5381159633885111e-01 -2.4369519817744278e-02 0.0000000000000000e+00 
1.5381158441904877e-01 -2.4369542401713087e-02 0.0000000000000000e+00 
1.4056171038965853e-01 -2.3749299536921700e-02 0.0000000000000000e+00 
1.4056169225350801e-01 -2.3749315686837021e-02 0.0000000000000000e+00 
1.5381161251959119e-01 -2.4369519654518473e-02 3.0619163292537786e-09 
1.4056170934252427e-01 -2.3749306934976212e-02 -8.0444378587153359e-10 
1.8106662477855862e-01 2.4453983444186290e-02 0.0000000000000000e+00 
1.8106662684263292e-01 2.4453979596256489e-02 0.0000000000000000e+00 
1.6726150480843055e-01 2.3978566432506003e-02 0.0000000000000000e+00 
1.6726150902687204e-01 2.3978564902808121e-02 0.0000000000000000e+00 
1.8106663729002154e-01 2.4453992753948453e-02 -3.6881772417899035e-09 
1.6726150697613773e-01 2.3978573607876454e-02 -3.7586997687330503e-09 
1.8113892443630314e-01 -2.5360498646574747e-02 0.0000000000000000e+00 
1.8113892895714920e-01 -2.5360523979256415e-02 0.0000000000000000e+00 
1.6737351052184751e-01 -2.4894597637869810e-02 0.0000000000000000e+00 
1.6737350172098375e-01 -2.4894614719292364e-02 0.0000000000000000e+00 
1.8113892533677395e-01 -2.5360509279885785e-02 1.7016404143342778e-09 
1.6737349213623878e-01 -2.4894589748975231e-02 2.4623172985536939e-09 
2.0946163956484604e-01 2.5128667405869540e-02 0.0000000000000000e+00 
2.0946164379897156e-01 2.5128663729079841e-02 0.0000000000000000e+00 
1.9518685296781546e-01 2.4834679277525008e-02 0.0000000000000000e+00 
1.9518684560640764e-01 2.4834665981803596e-02 0.0000000000000000e+00 
2.0946164004619047e-01 2.5128675436746739e-02 -2.8450981811041602e-09 
1.9518685206873099e-01 2.4834679154076805e-02 -2.1157319531188124e-09 
2.0940466590201615e-01 -2.6175905220842621e-02 0.0000000000000000e+00 
2.0940467785600017e-01 -2.6175900525238511e-02 0.0000000000000000e+00 
1.9513715783709659e-01 -2.5789573818284006e-02 0.0000000000000000e+00 
1.9513717788274282e-01 -2.5789574788567991e-02 0.0000000000000000e+00 
2.0940468165148365e-01 -2.6175914221126174e-02 -1.6636409055358987e-09 
1.9513716255252606e-01 -2.5789579939068580e-02 -1.9168210390573757e-09 
2.3833423092932118e-01 2.5605084673924979e-02 0.0000000000000000e+00 
2.3833423910340013e-01 2.5605069131130628e-02 0.0000000000000000e+00 
2.2382752918329790e-01 2.5379960905001817e-02 0.0000000000000000e+00 
2.2382753659349452e-01 2.5379946395441031e-02 0.0000000000000000e+00 
2.3833424434665607e-01 2.5605082009421715e-02 -1.2550996416693737e-10 
2.2382753233619462e-01 2.5379959028354326e-02 8.9472125144609490e-10 
2.3838855523763014e-01 -2.6705588703949179e-02 0.0000000000000000e+00 
2.3838857132801108e-01 -2.6705593207537143e-02 0.0000000000000000e+00 
2.2387171300647318e-01 -2.6477431581359047e-02 0.0000000000000000e+00 
2.2387170961836794e-01 -2.6477423496542238e-02 0.0000000000000000e+00 
2.3838855427852573e-01 -2.6705593305655119e-02 -2.2297334651780477e-09 
2.2387171148026358e-01 -2.6477426266346957e-02 -2.9774905729106030e-09 
2.6771769087350344e-01 2.5916934764957576e-02 0.0000000000000000e+00 
2.6771770120846039e-01 2.5916929581949157e-02 0.0000000000000000e+00 
2.5298753688380771e-01 2.5772143904199449e-02 0.0000000000000000e+00 
2.5298753372450394e-01 2.5772131074332891e-02 0.0000000000000000e+00 
2.6771769438803084e-01 2.5916924089842495e-02 1.3586409352103633e-09 
2.5298754745558522e-01 2.5772133349196390e-02 2.4487701435136335e-10 
2.6765384407293913e-01 -2.7159924681085853e-02 0.0000000000000000e+00 
2.6765385995278168e-01 -2.7159904600287558e-02 0.0000000000000000e+00 
2.5294119371555995e-01 -2.6928764766286077e-02 0.0000000000000000e+00 
2.5294122349087822e-01 -2.6928756366131699e-02 0.0000000000000000e+00 
2.6765385538821207e-01 -2.7159925870427738e-02 -2.8873415415203533e-09 
2.5294119187501868e-01 -2.6928766707482406e-02 -4.8963753387791115e-09 
2.9742955626409640e-01 2.6295680763919433e-02 0.0000000000000000e+00 
2.9742954290545986e-01 2.6295674825652964e-02 0.0000000000000000e+00 
2.8250418650268538e-01 2.6094206644068633e-02 0.0000000000000000e+00 
2.8250419004670024e-01 2.6094193930255916e-02 0.0000000000000000e+00 
2.9742954725442927e-01 2.6295683214774816e-02 2.6673754944274118e-09 
2.8250417043721876e-01 2.6094198779590169e-02 2.1240114730347831e-09 
2.9748268649212961e-01 -2.7513026194135905e-02 0.0000000000000000e+00 
2.9748268139106171e-01 -2.7513019041231025e-02 0.0000000000000000e+00 
2.8253126623897051e-01 -2.7361749886322517e-02 0.0000000000000000e+00 
2.8253126092602204e-01 -2.7361731143566284e-02 0.0000000000000000e+00 
2.9748268915593845e-01 -2.7513028246150872e-02 4.4268997155647822e-10 
2.8253125886810104e-01 -2.7361746132031392e-02 -1.4540598826190988e-09 
3.2761941601692013e-01 2.6593204425426023e-02 0.0000000000000000e+00 
3.2761940430259517e-01 2.6593215027115348e-02 0.0000000000000000e+00 
3.1249550279787930e-01 2.6464071205027421e-02 0.0000000000000000e+00 
3.1249547713547954e-01 2.6464072358408548e-02 0.0000000000000000e+00 
3.2761940662241856e-01 2.6593210301728790e-02 1.3902774853154351e-09 
3.1249549233820861e-01 2.6464068435458461e-02 2.0222564877823071e-09 
3.2744236470488453e-01 -2.7798884098040565e-02 0.0000000000000000e+00 
3.2744234603155803e-01 -2.7798893597352187e-02 0.0000000000000000e+00 
3.1243031169592184e-01 -2.7637816450353341e-02 0.0000000000000000e+00 
3.1243028881007040e-01 -2.7637810928950887e-02 0.0000000000000000e+00 
3.2744236256156278e-01 -2.7798891595715018e-02 5.3325321963321454e-11 
3.1243030027288504e-01 -2.7637811800268121e-02 6.5789136418342955e-11 
3.5796648095690742e-01 2.6793046480028743e-02 0.0000000000000000e+00 
3.5796648831083677e-01 2.6793058715821251e-02 0.0000000000000000e+00 
3.4277136293238042e-01 2.6698335826959588e-02 0.0000000000000000e+00 
3.4277135467431175e-01 2.6698351647163124e-02 0.0000000000000000e+00 
3.5796648170993445e-01 2.6793052298275305e-02 1.4603367819172842e-09 
3.4277135419810945e-01 2.6698343364130971e-02 1.8988481162691013e-09 
3.5796333636228833e-01 -2.8071308372126059e-02 0.0000000000000000e+00 
3.5796334800787877e-01 -2.8071317191578841e-02 0.0000000000000000e+00 
3.4265279928070785e-01 -2.7964075519298782e-02 0.0000000000000000e+00 
3.4265278496279095e-01 -2.7964086596888274e-02 0.0000000000000000e+00 
3.5796334183720169e-01 -2.8071302960160093e-02 1.6039614695857465e-10 
3.4265279800073256e-01 -2.7964073390422634e-02 3.1129331723282129e-10 
3.8852791761099714e-01 2.6895526825784190e-02 0.0000000000000000e+00 
3.8851602785769657e-01 8.5331510901076341e-03 0.0000000000000000e+00 
3.8852791840569711e-01 2.6895522449432406e-02 0.0000000000000000e+00 
3.8851602631104554e-01 8.5331489540083193e-03 0.0000000000000000e+00 
3.7322523766282290e-01 2.6864222406276294e-02 0.0000000000000000e+00 
3.8852228821648599e-01 1.7709859204772138e-02 0.0000000000000000e+00 
3.7322524484403430e-01 2.6864226206246528e-02 0.0000000000000000e+00 
3.8852228437943814e-01 1.7709859412322088e-02 0.0000000000000000e+00 
3.8852792730724950e-01 2.6895538567050643e-02 -1.8426745613506816e-09 
3.8851602143673047e-01 8.5331440194841915e-03 1.1848023374338994e-09 
3.7322523182906164e-01 2.6864225053907440e-02 -2.1641437218356043e-09 
3.8852229061708754e-01 1.7709856322044935e-02 -2.0908747513718610e-09 
3.8850314401844555e-01 -9.7853336338575500e-03 0.0000000000000000e+00 
3.8850312954424715e-01 -9.7853397538130004e-03 0.0000000000000000e+00 
3.8851125516848151e-01 -6.2495701999585966e-04 0.0000000000000000e+00 
3.8851125480737980e-01 -6.2496394900098270e-04 0.0000000000000000e+00 
3.8850314059277080e-01 -9.7853383410499185e-03 -1.0713593605045898e-10 
3.8851125448894841e-01 -6.2496373098077512e-04 -6.5113173528508199e-10 
3.8847277412021675e-01 -2.8134376105746636e-02 0.0000000000000000e+00 
3.8847274874669147e-01 -2.8134337874838551e-02 0.0000000000000000e+00 
3.7322090499165456e-01 -2.8117299623584134e-02 0.0000000000000000e+00 
3.8848535933204315e-01 -1.8966412336089498e-02 0.0000000000000000e+00 
3.7322091205007341e-01 -2.8117282472709077e-02 0.0000000000000000e+00 
3.8848533772691196e-01 -1.8966401375825004e-02 0.0000000000000000e+00 
3.8847277388164236e-01 -2.8134376674709541e-02 -8.3740932997548156e-10 
3.7322089582537538e-01 -2.8117290593133240e-02 -8.0300049145939199e-10 
3.8848535196126688e-01 -1.8966407493603614e-02 -1.8851184085858168e-09 

VECTORS Stress float
2.0802673138126389e+02 -8.5902422990586729e+00 -1.6964814901038587e-12 
2.0926581199392297e+02 -1.2407077298797276e+01 -1.9493762361866938e-12 
2.0802673138126389e+02 -8.5902422990586729e+00 -1.6964814901038587e-12 
2.0926581199392297e+02 -1.2407077298797276e+01 -1.9493762361866938e-12 
2.0918664736112891e+02 -8.6533503230230053e+00 -1.8081487824364749e-12 
2.0918664736112891e+02 -8.6533503230230053e+00 -1.8081487824364749e-12 
2.0802673138126389e+02 -8.5902422990586729e+00 -1.6964814901038587e-12 
2.0926581199392297e+02 -1.2407077298797276e+01 -1.9493762361866938e-12 
2.0918664736112891e+02 -8.6533503230230053e+00 -1.8081487824364749e-12 
-8.9986561795772502e+01 7.3172483262824244e+00 1.8870473098281095e-12 
-9.3327473372441432e+01 5.7355009172283644e+00 2.1221865034397145e-12 
-8.9986561795772502e+01 7.3172483262824244e+00 1.8870473098281095e-12 
-9.3327473372441432e+01 5.7355009172283644e+00 2.1221865034397145e-12 
-9.2693515552142912e+01 4.5707202067221715e+00 1.9919985617494596e-12 
-9.2693515552142912e+01 4.5707202067221715e+00 1.9919985617494596e-12 
-8.9986561795772502e+01 7.3172483262824244e+00 1.8870473098281095e-12 
-9.3327473372441432e+01 5.7355009172283644e+00 2.1221865034397145e-12 
-9.2693515552142912e+01 4.5707202067221715e+00 1.9919985617494596e-12 
2.0833784055462320e+02 -2.3937638216069445e+01 -1.5824265012854655e-12 
2.0833784055462320e+02 -2.3937638216069445e+01 -1.5824265012854655e-12 
2.0889569514797711e+02 -1.8011544121062570e+01 -2.0107630010887990e-12 
2.0889569514797711e+02 -1.8011544121062570e+01 -2.0107630010887990e-12 
2.0833784055462320e+02 -2.3937638216069445e+01 -1.5824265012854655e-12 
2.0889569514797711e+02 -1.8011544121062570e+01 -2.0107630010887990e-12 
-9.2513577035421235e+01 1.1990780228943095e+01 1.6300966297996817e-12 
-9.2513577035421235e+01 1.1990780228943095e+01 1.6300966297996817e-12 
-9.2969176463107601e+01 8.8077161085902844e+00 2.1513375693154074e-12 
-9.2969176463107601e+01 8.8077161085902844e+00 2.1513375693154074e-12 
-9.2513577035421235e+01 1.1990780228943095e+01 1.6300966297996817e-12 
-9.2969176463107601e+01 8.8077161085902844e+00 2.1513375693154074e-12 
2.0651380333264456e+02 -3.5654652624700248e+01 4.7115630382992830e-13 
2.0651380333264456e+02 -3.5654652624700248e+01 4.7115630382992830e-13 
2.0750706716011587e+02 -2.9879642959124794e+01 -5.5833425176227733e-13 
2.0750706716011587e+02 -2.9879642959124794e+01 -5.5833425176227733e-13 
2.0651380333264456e+02 -3.5654652624700248e+01 4.7115630382992830e-13 
2.0750706716011587e+02 -2.9879642959124794e+01 -5.5833425176227733e-13 
-9.2012885024874095e+01 1.7660647233547934e+01 -6.0816337962499827e-13 
-9.2012885024874095e+01 1.7660647233547934e+01 -6.0816337962499827e-13 
-9.2184326296242830e+01 1.4918673722578205e+01 4.7140292039065464e-13 
-9.2184326296242830e+01 1.4918673722578205e+01 4.7140292039065464e-13 
-9.2012885024874095e+01 1.7660647233547934e+01 -6.0816337962499827e-13 
-9.2184326296242830e+01 1.4918673722578205e+01 4.7140292039065464e-13 
2.0302779367397943e+02 -4.6477681146494433e+01 1.4896137429540880e-12 
2.0302779367397943e+02 -4.6477681146494433e+01 1.4896137429540880e-12 
2.0487086293867810e+02 -4.1211042313225335e+01 1.0574049746752932e-12 
2.0487086293867810e+02 -4.1211042313225335e+01 1.0574049746752932e-12 
2.0302779367397943e+02 -4.6477681146494433e+01 1.4896137429540880e-12 
2.0487086293867810e+02 -4.1211042313225335e+01 1.0574049746752932e-12 
-9.1200260475919094e+01 2.2990200007347539e+01 -1.2327571848190730e-12 
-9.1200260475919094e+01 2.2990200007347539e+01 -1.2327571848190730e-12 
-9.1557760944587244e+01 2.0342721154640458e+01 -1.0332101870256256e-12 
-9.1557760944587244e+01 2.0342721154640458e+01 -1.0332101870256256e-12 
-9.1200260475919094e+01 2.2990200007347539e+01 -1.2327571848190730e-12 
-9.1557760944587244e+01 2.0342721154640458e+01 -1.0332101870256256e-12 
1.9837815620871584e+02 -5.5193950300260894e+01 1.7877154823572479e-12 
1.9837815620871584e+02 -5.5193950300260894e+01 1.7877154823572479e-12 
2.0083536841306795e+02 -5.1094793303477218e+01 1.7914982807455473e-12 
2.0083536841306795e+02 -5.1094793303477218e+01 1.7914982807455473e-12 
1.9837815620871584e+02 -5.5193950300260894e+01 1.7877154823572479e-12 
2.0083536841306795e+02 -5.1094793303477218e+01 1.7914982807455473e-12 
-9.0271199393876941e+01 2.7690539625235942e+01 -1.3126565609631354e-12 
-9.0271199393876941e+01 2.7690539625235942e+01 -1.3126565609631354e-12 
-9.0747197308942077e+01 2.5416009832256350e+01 -1.3612222909649245e-12 
-9.0747197308942077e+01 2.5416009832256350e+01 -1.3612222909649245e-12 
-9.0271199393876941e+01 2.7690539625235942e+01 -1.3126565609631354e-12 
-9.0747197308942077e+01 2.5416009832256350e+01 -1.3612222909649245e-12 
1.9267874875940765e+02 -6.2547252852233214e+01 -2.3894222398939615e-12 
1.9267874875940765e+02 -6.2547252852233214e+01 -2.3894222398939615e-12 
1.9573001852655307e+02 -5.9029183368087615e+01 6.8357426854434538e-13 
1.9573001852655307e+02 -5.9029183368087615e+01 6.8357426854434538e-13 
1.9267874875940765e+02 -6.2547252852233214e+01 -2.3894222398939615e-12 
1.9573001852655307e+02 -5.9029183368087615e+01 6.8357426854434538e-13 
-8.9320122550152064e+01 3.1691416270930404e+01 2.3121105131498920e-12 
-8.9320122550152064e+01 3.1691416270930404e+01 2.3121105131498920e-12 
-8.9863186768157448e+01 2.9842086347704480e+01 -3.6193373041528650e-13 
-8.9863186768157448e+01 2.9842086347704480e+01 -3.6193373041528650e-13 
-8.9320122550152064e+01 3.1691416270930404e+01 2.3121105131498920e-12 
-8.9863186768157448e+01 2.9842086347704480e+01 -3.6193373041528650e-13 
1.8603273908510823e+02 -6.9030864602547354e+01 -7.9197131205153322e-12 
1.8603273908510823e+02 -6.9030864602547354e+01 -7.9197131205153322e-12 
1.8951918656734574e+02 -6.5963744418109400e+01 -5.7194947747951700e-12 
1.8951918656734574e+02 -6.5963744418109400e+01 -5.7194947747951700e-12 
1.8603273908510823e+02 -6.9030864602547354e+01 -7.9197131205153322e-12 
1.8951918656734574e+02 -6.5963744418109400e+01 -5.7194947747951700e-12 
-8.8174717224327424e+01 3.5484746708028069e+01 7.1332200492937281e-12 
-8.8174717224327424e+01 3.5484746708028069e+01 7.1332200492937281e-12 
-8.8853080258505770e+01 3.3602935997043460e+01 5.2086362943947465e-12 
-8.8853080258505770e+01 3.3602935997043460e+01 5.2086362943947465e-12 
-8.8174717224327424e+01 3.5484746708028069e+01 7.1332200492937281e-12 
-8.8853080258505770e+01 3.3602935997043460e+01 5.2086362943947465e-12 
1.7888934061919440e+02 -7.4290869786188978e+01 -8.1671639231454477e-12 
1.7888934061919440e+02 -7.4290869786188978e+01 -8.1671639231454477e-12 
1.8244577391214648e+02 -7.1904499672886686e+01 -9.0845886891180564e-12 
1.8244577391214648e+02 -7.1904499672886686e+01 -9.0845886891180564e-12 
1.7888934061919440e+02 -7.4290869786188978e+01 -8.1671639231454477e-12 
1.8244577391214648e+02 -7.1904499672886686e+01 -9.0845886891180564e-12 
-8.6917167654667537e+01 3.8818985411463018e+01 7.4373263547071958e-12 
-8.6917167654667537e+01 3.8818985411463018e+01 7.4373263547071958e-12 
-8.7486255807982161e+01 3.7386668950747662e+01 8.2086377090241886e-12 
-8.7486255807982161e+01 3.7386668950747662e+01 8.2086377090241886e-12 
-8.6917167654667537e+01 3.8818985411463018e+01 7.4373263547071958e-12 
-8.7486255807982161e+01 3.7386668950747662e+01 8.2086377090241886e-12 
1.7213078326093614e+02 -7.7382631456552645e+01 -1.3899212593335984e-12 
1.7213078326093614e+02 -7.7382631456552645e+01 -1.3899212593335984e-12 
1.7540629235416418e+02 -7.6015500062106184e+01 -4.8907928610635545e-12 
1.7540629235416418e+02 -7.6015500062106184e+01 -4.8907928610635545e-12 
1.7213078326093614e+02 -7.7382631456552645e+01 -1.3899212593335984e-12 
1.7540629235416418e+02 -7.6015500062106184e+01 -4.8907928610635545e-12 
-8.5969489712699897e+01 4.0422281701376505e+01 1.2806425952643009e-12 
-8.5969489712699897e+01 4.0422281701376505e+01 1.2806425952643009e-12 
-8.6436878231552328e+01 3.9616542040103013e+01 4.4991612536023581e-12 
-8.6436878231552328e+01 3.9616542040103013e+01 4.4991612536023581e-12 
-8.5969489712699897e+01 4.0422281701376505e+01 1.2806425952643009e-12 
-8.6436878231552328e+01 3.9616542040103013e+01 4.4991612536023581e-12 
1.6625794570234302e+02 -7.8120076737906857e+01 3.2628041006600547e-12 
1.6625794570234302e+02 -7.8120076737906857e+01 3.2628041006600547e-12 
1.6913374338145877e+02 -7.7834345950446732e+01 1.2609059080072830e-12 
1.6913374338145877e+02 -7.7834345950446732e+01 1.2609059080072830e-12 
1.6625794570234302e+02 -7.8120076737906857e+01 3.2628041006600547e-12 
1.6913374338145877e+02 -7.7834345950446732e+01 1.2609059080072830e-12 
-8.4678447266044941e+01 4.1714383685845405e+01 -3.5309686474045478e-12 
-8.4678447266044941e+01 4.1714383685845405e+01 -3.5309686474045478e-12 
-8.5340307740210619e+01 4.1025271189674186e+01 -1.3731684204708551e-12 
-8.5340307740210619e+01 4.1025271189674186e+01 -1.3731684204708551e-12 
-8.4678447266044941e+01 4.1714383685845405e+01 -3.5309686474045478e-12 
-8.5340307740210619e+01 4.1025271189674186e+01 -1.3731684204708551e-12 
1.5999289790995772e+02 -7.8755313642154761e+01 3.1901798791939878e-12 
1.5999289790995772e+02 -7.8755313642154761e+01 3.1901798791939878e-12 
1.6319763935950277e+02 -7.8414195540174660e+01 3.7946184199704544e-12 
1.6319763935950277e+02 -7.8414195540174660e+01 3.7946184199704544e-12 
1.5999289790995772e+02 -7.8755313642154761e+01 3.1901798791939878e-12 
1.6319763935950277e+02 -7.8414195540174660e+01 3.7946184199704544e-12 
-8.3225839117293276e+01 4.2425107566153656e+01 -3.8402775795682803e-12 
-8.3225839117293276e+01 4.2425107566153656e+01 -3.8402775795682803e-12 
-8.3966015670277102e+01 4.2155178713277564e+01 -4.2924148233759337e-12 
-8.3966015670277102e+01 4.2155178713277564e+01 -4.2924148233759337e-12 
-8.3225839117293276e+01 4.2425107566153656e+01 -3.8402775795682803e-12 
-8.3966015670277102e+01 4.2155178713277564e+01 -4.2924148233759337e-12 
1.5396939733384306e+02 -7.8282445815968458e+01 7.4669918972471152e-13 
1.5396939733384306e+02 -7.8282445815968458e+01 7.4669918972471152e-13 
1.5688754736327917e+02 -7.8867806383283096e+01 2.1808607230318070e-12 
1.5688754736327917e+02 -7.8867806383283096e+01 2.1808607230318070e-12 
1.5396939733384306e+02 -7.8282445815968458e+01 7.4669918972471152e-13 
1.5688754736327917e+02 -7.8867806383283096e+01 2.1808607230318070e-12 
-8.1626793374191834e+01 4.2599242428381331e+01 -4.8457733746641600e-13 
-8.1626793374191834e+01 4.2599242428381331e+01 -4.8457733746641600e-13 
-8.2466124361294646e+01 4.2650710299109051e+01 -2.6336653643015676e-12 
-8.2466124361294646e+01 4.2650710299109051e+01 -2.6336653643015676e-12 
-8.1626793374191834e+01 4.2599242428381331e+01 -4.8457733746641600e-13 
-8.2466124361294646e+01 4.2650710299109051e+01 -2.6336653643015676e-12 
1.4803344943059813e+02 -7.6650882876868536e+01 -1.3264435642925854e-12 
1.4803344943059813e+02 -7.6650882876868536e+01 -1.3264435642925854e-12 
1.5108130987314928e+02 -7.7595657781671434e+01 -6.0253651107635591e-13 
1.5108130987314928e+02 -7.7595657781671434e+01 -6.0253651107635591e-13 
1.4803344943059813e+02 -7.6650882876868536e+01 -1.3264435642925854e-12 
1.5108130987314928e+02 -7.7595657781671434e+01 -6.0253651107635591e-13 
-7.9821764851433841e+01 4.2355791650702940e+01 2.7666173584642794e-12 
-7.9821764851433841e+01 4.2355791650702940e+01 2.7666173584642794e-12 
-8.0768089508661774e+01 4.2610831325845083e+01 1.6352473111201541e-12 
-8.0768089508661774e+01 4.2610831325845083e+01 1.6352473111201541e-12 
-7.9821764851433841e+01 4.2355791650702940e+01 2.7666173584642794e-12 
-8.0768089508661774e+01 4.2610831325845083e+01 1.6352473111201541e-12 
1.4167891293717173e+02 -7.4548467286708501e+01 -1.8749771260382968e-12 
1.4167891293717173e+02 -7.4548467286708501e+01 -1.8749771260382968e-12 
1.4486593796221075e+02 -7.5666877300436909e+01 -1.7284582456444630e-12 
1.4486593796221075e+02 -7.5666877300436909e+01 -1.7284582456444630e-12 
1.4167891293717173e+02 -7.4548467286708501e+01 -1.8749771260382968e-12 
1.4486593796221075e+02 -7.5666877300436909e+01 -1.7284582456444630e-12 
-7.7814954371432918e+01 4.1902148438475479e+01 2.9236863300779664e-12 
-7.7814954371432918e+01 4.1902148438475479e+01 2.9236863300779664e-12 
-7.8847512717512416e+01 4.2093323516152850e+01 3.1855674130084247e-12 
-7.8847512717512416e+01 4.2093323516152850e+01 3.1855674130084247e-12 
-7.7814954371432918e+01 4.1902148438475479e+01 2.9236863300779664e-12 
-7.8847512717512416e+01 4.2093323516152850e+01 3.1855674130084247e-12 
1.3430186817679908e+02 -7.1654078565640475e+01 -1.5709498068292110e-12 
1.3430186817679908e+02 -7.1654078565640475e+01 -1.5709498068292110e-12 
1.3834854354032825e+02 -7.3183389136178675e+01 -1.7391743198941891e-12 
1.3834854354032825e+02 -7.3183389136178675e+01 -1.7391743198941891e-12 
1.3430186817679908e+02 -7.1654078565640475e+01 -1.5709498068292110e-12 
1.3834854354032814e+02 -7.3183389136178903e+01 -1.7391743198941835e-12 
-7.5544042521891697e+01 4.1056366333542769e+01 1.0083075664481088e-12 
-7.5544042521891697e+01 4.1056366333542769e+01 1.0083075664481088e-12 
-7.6702920907461419e+01 4.1657678790497016e+01 2.0133454800619894e-12 
-7.6702920907461419e+01 4.1657678790497016e+01 2.0133454800619894e-12 
-7.5544042521891697e+01 4.1056366333542769e+01 1.0083075664481088e-12 
-7.6702920907461760e+01 4.1657678790497584e+01 2.0133454800619442e-12 
1.2417746568640919e+02 -6.7350463229730281e+01 -1.1941773635767549e-12 
1.2417746568640919e+02 -6.7350463229730281e+01 -1.1941773635767549e-12 
1.2877576766209756e+02 -6.9429506327845502e+01 -1.4003063658910692e-12 
1.2877576766209756e+02 -6.9429506327845502e+01 -1.4003063658910692e-12 
1.2417746568640919e+02 -6.7350463229730281e+01 -1.1941773635767549e-12 
1.2877576766209756e+02 -6.9429506327845502e+01 -1.4003063658910692e-12 
-7.2825931680285976e+01 3.8731622892398605e+01 -4.2803914716494808e-13 
-7.2825931680285976e+01 3.8731622892398605e+01 -4.2803914716494808e-13 
-7.4149656593935191e+01 3.9216245713906346e+01 1.9128626969148356e-13 
-7.4149656593935191e+01 3.9216245713906346e+01 1.9128626969148356e-13 
-7.2825931680285976e+01 3.8731622892398605e+01 -4.2803914716494808e-13 
-7.4149656593935191e+01 3.9216245713906346e+01 1.9128626969148356e-13 
1.2770364689887140e+02 -6.6361222697994208e+01 -7.9956013203220242e-13 
1.2770364689887140e+02 -6.6361222697994208e+01 -7.9956013203220242e-13 
1.2688560725971610e+02 -6.6965059649646719e+01 -1.0076960495255404e-12 
1.2688560725971610e+02 -6.6965059649646719e+01 -1.0076960495255404e-12 
1.2770364689887140e+02 -6.6361222697994208e+01 -7.9956013203220242e-13 
1.2688560725971624e+02 -6.6965059649646605e+01 -1.0076960495255220e-12 
-7.2550525411234958e+01 5.1387409056008771e+01 -6.5359365571980806e-13 
-7.2550525411234958e+01 5.1387409056008771e+01 -6.5359365571980806e-13 
-7.2439071390025617e+01 4.5572615684358340e+01 -6.9644360360167108e-13 
-7.2439071390025617e+01 4.5572615684358340e+01 -6.9644360360167108e-13 
-7.2550525411234958e+01 5.1387409056008771e+01 -6.5359365571980806e-13 
-7.2439071390025589e+01 4.5572615684358226e+01 -6.9644360360162705e-13 
2.7073600630773711e+01 -2.9722881527129516e+01 -1.1401668210683679e-13 
-2.0822546239910054e+01 -2.5691478292593217e+01 1.7573455688116234e-14 
2.7073600630773711e+01 -2.9722881527129516e+01 -1.1401668210683679e-13 
-2.0822546239910054e+01 -2.5691478292593217e+01 1.7573455688116234e-14 
9.7285189587622199e+01 -5.4670944351087542e+01 -4.8711636388714227e-13 
-9.8766755747116974e+00 -1.8089704801582855e+01 9.9337392342918693e-17 
9.7285189587622199e+01 -5.4670944351087542e+01 -4.8711636388714227e-13 
-9.8766755747116974e+00 -1.8089704801582855e+01 9.9337392342918693e-17 
2.7073600630773711e+01 -2.9722881527129516e+01 -1.1401668210683679e-13 
-2.0822546239910054e+01 -2.5691478292593217e+01 1.7573455688116234e-14 
9.7285189587622199e+01 -5.4670944351087542e+01 -4.8711636388714227e-13 
-9.8766755747116974e+00 -1.8089704801582855e+01 9.9337392342918693e-17 
-2.2426431992260820e+01 -5.1423067053199134e+01 -8.6939865107433994e-15 
-2.2426431992260820e+01 -5.1423067053199134e+01 -8.6939865107433994e-15 
-2.1876949161474613e+01 -3.9608912970143990e+01 -5.5666778529742505e-20 
-2.1876949161474613e+01 -3.9608912970143990e+01 -5.5666778529742505e-20 
-2.2426431992260820e+01 -5.1423067053199134e+01 -8.6939865107433994e-15 
-2.1876949161474613e+01 -3.9608912970143990e+01 -5.5666778529742505e-20 
-5.5773202091944562e+01 -3.2931374196642778e+01 2.3774693743811788e-14 
-5.5773202091944562e+01 -3.2931374196642778e+01 2.3774693743811788e-14 
-6.6839244564063833e+01 2.8305346071971108e+01 -4.0424029489060620e-13 
-2.9834894675539502e+01 -5.3824191480783227e+01 -1.9804068672140517e-19 
-6.6839244564063833e+01 2.8305346071971108e+01 -4.0424029489060620e-13 
-2.9834894675539502e+01 -5.3824191480783227e+01 -1.9804068672140517e-19 
-5.5773202091944562e+01 -3.2931374196642778e+01 2.3774693743811788e-14 
-6.6839244564063833e+01 2.8305346071971108e+01 -4.0424029489060620e-13 
-2.9834894675539516e+01 -5.3824191480783341e+01 -1.9804071135910896e-19 

