# vtk DataFile Version 2.0

ASCII

DATASET UNSTRUCTURED_GRID

POINTS 237 float 

-5.0000000000000003e-02  0.0000000000000000e+00  0.0000000000000000e+00
-5.0000000000000003e-02  5.5555555555555552e-02  0.0000000000000000e+00
-5.0000000000000003e-02  0.0000000000000000e+00  2.9999999999999999e-01
-5.0000000000000003e-02  5.5555555555555552e-02  2.9999999999999999e-01
-5.0000000000000003e-02  2.7777777777777776e-02  0.0000000000000000e+00
-5.0000000000000003e-02  2.7777777777777776e-02  2.9999999999999999e-01
-5.0000000000000003e-02  0.0000000000000000e+00  1.4999999999999999e-01
-5.0000000000000003e-02  5.5555555555555552e-02  1.4999999999999999e-01
-5.0000000000000003e-02  2.7777777777777776e-02  1.4999999999999999e-01
5.0000000000000003e-02  0.0000000000000000e+00  0.0000000000000000e+00
5.0000000000000003e-02  5.5555555555555552e-02  0.0000000000000000e+00
5.0000000000000003e-02  0.0000000000000000e+00  2.9999999999999999e-01
5.0000000000000003e-02  5.5555555555555552e-02  2.9999999999999999e-01
5.0000000000000003e-02  2.7777777777777776e-02  0.0000000000000000e+00
5.0000000000000003e-02  2.7777777777777776e-02  2.9999999999999999e-01
5.0000000000000003e-02  0.0000000000000000e+00  1.4999999999999999e-01
5.0000000000000003e-02  5.5555555555555552e-02  1.4999999999999999e-01
5.0000000000000003e-02  2.7777777777777776e-02  1.4999999999999999e-01
-5.0000000000000003e-02  1.1111111111111110e-01  0.0000000000000000e+00
-5.0000000000000003e-02  1.1111111111111110e-01  2.9999999999999999e-01
-5.0000000000000003e-02  8.3333333333333329e-02  0.0000000000000000e+00
-5.0000000000000003e-02  8.3333333333333329e-02  2.9999999999999999e-01
-5.0000000000000003e-02  1.1111111111111110e-01  1.4999999999999999e-01
-5.0000000000000003e-02  8.3333333333333329e-02  1.4999999999999999e-01
5.0000000000000003e-02  1.1111111111111110e-01  0.0000000000000000e+00
5.0000000000000003e-02  1.1111111111111110e-01  2.9999999999999999e-01
5.0000000000000003e-02  8.3333333333333329e-02  0.0000000000000000e+00
5.0000000000000003e-02  8.3333333333333329e-02  2.9999999999999999e-01
5.0000000000000003e-02  1.1111111111111110e-01  1.4999999999999999e-01
5.0000000000000003e-02  8.3333333333333329e-02  1.4999999999999999e-01
-5.0000000000000003e-02  1.6666666666666666e-01  0.0000000000000000e+00
-5.0000000000000003e-02  1.6666666666666666e-01  2.9999999999999999e-01
-5.0000000000000003e-02  1.3888888888888890e-01  0.0000000000000000e+00
-5.0000000000000003e-02  1.3888888888888890e-01  2.9999999999999999e-01
-5.0000000000000003e-02  1.6666666666666666e-01  1.4999999999999999e-01
-5.0000000000000003e-02  1.3888888888888890e-01  1.4999999999999999e-01
5.0000000000000003e-02  1.6666666666666666e-01  0.0000000000000000e+00
5.0000000000000003e-02  1.6666666666666666e-01  2.9999999999999999e-01
5.0000000000000003e-02  1.3888888888888890e-01  0.0000000000000000e+00
5.0000000000000003e-02  1.3888888888888890e-01  2.9999999999999999e-01
5.0000000000000003e-02  1.6666666666666666e-01  1.4999999999999999e-01
5.0000000000000003e-02  1.3888888888888890e-01  1.4999999999999999e-01
-5.0000000000000003e-02  2.2222222222222221e-01  0.0000000000000000e+00
-5.0000000000000003e-02  2.2222222222222221e-01  2.9999999999999999e-01
-5.0000000000000003e-02  1.9444444444444442e-01  0.0000000000000000e+00
-5.0000000000000003e-02  1.9444444444444442e-01  2.9999999999999999e-01
-5.0000000000000003e-02  2.2222222222222221e-01  1.4999999999999999e-01
-5.0000000000000003e-02  1.9444444444444442e-01  1.4999999999999999e-01
5.0000000000000003e-02  2.2222222222222221e-01  0.0000000000000000e+00
5.0000000000000003e-02  2.2222222222222221e-01  2.9999999999999999e-01
5.0000000000000003e-02  1.9444444444444442e-01  0.0000000000000000e+00
5.0000000000000003e-02  1.9444444444444442e-01  2.9999999999999999e-01
5.0000000000000003e-02  2.2222222222222221e-01  1.4999999999999999e-01
5.0000000000000003e-02  1.9444444444444442e-01  1.4999999999999999e-01
-5.0000000000000003e-02  2.7777777777777779e-01  0.0000000000000000e+00
-5.0000000000000003e-02  2.7777777777777779e-01  2.9999999999999999e-01
-5.0000000000000003e-02  2.5000000000000000e-01  0.0000000000000000e+00
-5.0000000000000003e-02  2.5000000000000000e-01  2.9999999999999999e-01
-5.0000000000000003e-02  2.7777777777777779e-01  1.4999999999999999e-01
-5.0000000000000003e-02  2.5000000000000000e-01  1.4999999999999999e-01
5.0000000000000003e-02  2.7777777777777779e-01  0.0000000000000000e+00
5.0000000000000003e-02  2.7777777777777779e-01  2.9999999999999999e-01
5.0000000000000003e-02  2.5000000000000000e-01  0.0000000000000000e+00
5.0000000000000003e-02  2.5000000000000000e-01  2.9999999999999999e-01
5.0000000000000003e-02  2.7777777777777779e-01  1.4999999999999999e-01
5.0000000000000003e-02  2.5000000000000000e-01  1.4999999999999999e-01
-5.0000000000000003e-02  3.3333333333333331e-01  0.0000000000000000e+00
-5.0000000000000003e-02  3.3333333333333331e-01  2.9999999999999999e-01
-5.0000000000000003e-02  3.0555555555555558e-01  0.0000000000000000e+00
-5.0000000000000003e-02  3.0555555555555558e-01  2.9999999999999999e-01
-5.0000000000000003e-02  3.3333333333333331e-01  1.4999999999999999e-01
-5.0000000000000003e-02  3.0555555555555558e-01  1.4999999999999999e-01
5.0000000000000003e-02  3.3333333333333331e-01  0.0000000000000000e+00
5.0000000000000003e-02  3.3333333333333331e-01  2.9999999999999999e-01
5.0000000000000003e-02  3.0555555555555558e-01  0.0000000000000000e+00
5.0000000000000003e-02  3.0555555555555558e-01  2.9999999999999999e-01
5.0000000000000003e-02  3.3333333333333331e-01  1.4999999999999999e-01
5.0000000000000003e-02  3.0555555555555558e-01  1.4999999999999999e-01
-5.0000000000000003e-02  3.8888888888888884e-01  0.0000000000000000e+00
-5.0000000000000003e-02  3.8888888888888884e-01  2.9999999999999999e-01
-5.0000000000000003e-02  3.6111111111111105e-01  0.0000000000000000e+00
-5.0000000000000003e-02  3.6111111111111105e-01  2.9999999999999999e-01
-5.0000000000000003e-02  3.8888888888888884e-01  1.4999999999999999e-01
-5.0000000000000003e-02  3.6111111111111105e-01  1.4999999999999999e-01
5.0000000000000003e-02  3.8888888888888884e-01  0.0000000000000000e+00
5.0000000000000003e-02  3.8888888888888884e-01  2.9999999999999999e-01
5.0000000000000003e-02  3.6111111111111105e-01  0.0000000000000000e+00
5.0000000000000003e-02  3.6111111111111105e-01  2.9999999999999999e-01
5.0000000000000003e-02  3.8888888888888884e-01  1.4999999999999999e-01
5.0000000000000003e-02  3.6111111111111105e-01  1.4999999999999999e-01
-5.0000000000000003e-02  4.4444444444444442e-01  0.0000000000000000e+00
-5.0000000000000003e-02  4.4444444444444442e-01  2.9999999999999999e-01
-5.0000000000000003e-02  4.1666666666666663e-01  0.0000000000000000e+00
-5.0000000000000003e-02  4.1666666666666663e-01  2.9999999999999999e-01
-5.0000000000000003e-02  4.4444444444444442e-01  1.4999999999999999e-01
-5.0000000000000003e-02  4.1666666666666663e-01  1.4999999999999999e-01
5.0000000000000003e-02  4.4444444444444442e-01  0.0000000000000000e+00
5.0000000000000003e-02  4.4444444444444442e-01  2.9999999999999999e-01
5.0000000000000003e-02  4.1666666666666663e-01  0.0000000000000000e+00
5.0000000000000003e-02  4.1666666666666663e-01  2.9999999999999999e-01
5.0000000000000003e-02  4.4444444444444442e-01  1.4999999999999999e-01
5.0000000000000003e-02  4.1666666666666663e-01  1.4999999999999999e-01
-5.0000000000000003e-02  5.0000000000000000e-01  0.0000000000000000e+00
-5.0000000000000003e-02  5.0000000000000000e-01  2.9999999999999999e-01
-5.0000000000000003e-02  4.7222222222222221e-01  0.0000000000000000e+00
-5.0000000000000003e-02  4.7222222222222221e-01  2.9999999999999999e-01
-5.0000000000000003e-02  5.0000000000000000e-01  1.4999999999999999e-01
-5.0000000000000003e-02  4.7222222222222221e-01  1.4999999999999999e-01
5.0000000000000003e-02  5.0000000000000000e-01  0.0000000000000000e+00
5.0000000000000003e-02  5.0000000000000000e-01  2.9999999999999999e-01
5.0000000000000003e-02  4.7222222222222221e-01  0.0000000000000000e+00
5.0000000000000003e-02  4.7222222222222221e-01  2.9999999999999999e-01
5.0000000000000003e-02  5.0000000000000000e-01  1.4999999999999999e-01
5.0000000000000003e-02  4.7222222222222221e-01  1.4999999999999999e-01
-5.0000000000000003e-02  5.5555555555555558e-01  0.0000000000000000e+00
-5.0000000000000003e-02  5.5555555555555558e-01  2.9999999999999999e-01
-5.0000000000000003e-02  5.2777777777777779e-01  0.0000000000000000e+00
-5.0000000000000003e-02  5.2777777777777779e-01  2.9999999999999999e-01
-5.0000000000000003e-02  5.5555555555555558e-01  1.4999999999999999e-01
-5.0000000000000003e-02  5.2777777777777779e-01  1.4999999999999999e-01
5.0000000000000003e-02  5.5555555555555558e-01  0.0000000000000000e+00
5.0000000000000003e-02  5.5555555555555558e-01  2.9999999999999999e-01
5.0000000000000003e-02  5.2777777777777779e-01  0.0000000000000000e+00
5.0000000000000003e-02  5.2777777777777779e-01  2.9999999999999999e-01
5.0000000000000003e-02  5.5555555555555558e-01  1.4999999999999999e-01
5.0000000000000003e-02  5.2777777777777779e-01  1.4999999999999999e-01
-5.0000000000000003e-02  6.1111111111111105e-01  0.0000000000000000e+00
-5.0000000000000003e-02  6.1111111111111105e-01  2.9999999999999999e-01
-5.0000000000000003e-02  5.8333333333333326e-01  0.0000000000000000e+00
-5.0000000000000003e-02  5.8333333333333326e-01  2.9999999999999999e-01
-5.0000000000000003e-02  6.1111111111111105e-01  1.4999999999999999e-01
-5.0000000000000003e-02  5.8333333333333326e-01  1.4999999999999999e-01
5.0000000000000003e-02  6.1111111111111105e-01  0.0000000000000000e+00
5.0000000000000003e-02  6.1111111111111105e-01  2.9999999999999999e-01
5.0000000000000003e-02  5.8333333333333326e-01  0.0000000000000000e+00
5.0000000000000003e-02  5.8333333333333326e-01  2.9999999999999999e-01
5.0000000000000003e-02  6.1111111111111105e-01  1.4999999999999999e-01
5.0000000000000003e-02  5.8333333333333326e-01  1.4999999999999999e-01
-5.0000000000000003e-02  6.6666666666666663e-01  0.0000000000000000e+00
-5.0000000000000003e-02  6.6666666666666663e-01  2.9999999999999999e-01
-5.0000000000000003e-02  6.3888888888888884e-01  0.0000000000000000e+00
-5.0000000000000003e-02  6.3888888888888884e-01  2.9999999999999999e-01
-5.0000000000000003e-02  6.6666666666666663e-01  1.4999999999999999e-01
-5.0000000000000003e-02  6.3888888888888884e-01  1.4999999999999999e-01
5.0000000000000003e-02  6.6666666666666663e-01  0.0000000000000000e+00
5.0000000000000003e-02  6.6666666666666663e-01  2.9999999999999999e-01
5.0000000000000003e-02  6.3888888888888884e-01  0.0000000000000000e+00
5.0000000000000003e-02  6.3888888888888884e-01  2.9999999999999999e-01
5.0000000000000003e-02  6.6666666666666663e-01  1.4999999999999999e-01
5.0000000000000003e-02  6.3888888888888884e-01  1.4999999999999999e-01
-5.0000000000000003e-02  7.2222222222222221e-01  0.0000000000000000e+00
-5.0000000000000003e-02  7.2222222222222221e-01  2.9999999999999999e-01
-5.0000000000000003e-02  6.9444444444444442e-01  0.0000000000000000e+00
-5.0000000000000003e-02  6.9444444444444442e-01  2.9999999999999999e-01
-5.0000000000000003e-02  7.2222222222222221e-01  1.4999999999999999e-01
-5.0000000000000003e-02  6.9444444444444442e-01  1.4999999999999999e-01
5.0000000000000003e-02  7.2222222222222221e-01  0.0000000000000000e+00
5.0000000000000003e-02  7.2222222222222221e-01  2.9999999999999999e-01
5.0000000000000003e-02  6.9444444444444442e-01  0.0000000000000000e+00
5.0000000000000003e-02  6.9444444444444442e-01  2.9999999999999999e-01
5.0000000000000003e-02  7.2222222222222221e-01  1.4999999999999999e-01
5.0000000000000003e-02  6.9444444444444442e-01  1.4999999999999999e-01
-5.0000000000000003e-02  7.7777777777777768e-01  0.0000000000000000e+00
-5.0000000000000003e-02  7.7777777777777768e-01  2.9999999999999999e-01
-5.0000000000000003e-02  7.5000000000000000e-01  0.0000000000000000e+00
-5.0000000000000003e-02  7.5000000000000000e-01  2.9999999999999999e-01
-5.0000000000000003e-02  7.7777777777777768e-01  1.4999999999999999e-01
-5.0000000000000003e-02  7.5000000000000000e-01  1.4999999999999999e-01
5.0000000000000003e-02  7.7777777777777768e-01  0.0000000000000000e+00
5.0000000000000003e-02  7.7777777777777768e-01  2.9999999999999999e-01
5.0000000000000003e-02  7.5000000000000000e-01  0.0000000000000000e+00
5.0000000000000003e-02  7.5000000000000000e-01  2.9999999999999999e-01
5.0000000000000003e-02  7.7777777777777768e-01  1.4999999999999999e-01
5.0000000000000003e-02  7.5000000000000000e-01  1.4999999999999999e-01
-5.0000000000000003e-02  8.3333333333333326e-01  0.0000000000000000e+00
-5.0000000000000003e-02  8.3333333333333326e-01  2.9999999999999999e-01
-5.0000000000000003e-02  8.0555555555555547e-01  0.0000000000000000e+00
-5.0000000000000003e-02  8.0555555555555547e-01  2.9999999999999999e-01
-5.0000000000000003e-02  8.3333333333333326e-01  1.4999999999999999e-01
-5.0000000000000003e-02  8.0555555555555536e-01  1.4999999999999999e-01
5.0000000000000003e-02  8.3333333333333326e-01  0.0000000000000000e+00
5.0000000000000003e-02  8.3333333333333326e-01  2.9999999999999999e-01
5.0000000000000003e-02  8.0555555555555547e-01  0.0000000000000000e+00
5.0000000000000003e-02  8.0555555555555547e-01  2.9999999999999999e-01
5.0000000000000003e-02  8.3333333333333326e-01  1.4999999999999999e-01
5.0000000000000003e-02  8.0555555555555536e-01  1.4999999999999999e-01
-5.0000000000000003e-02  8.8888888888888884e-01  0.0000000000000000e+00
-5.0000000000000003e-02  8.8888888888888884e-01  2.9999999999999999e-01
-5.0000000000000003e-02  8.6111111111111105e-01  0.0000000000000000e+00
-5.0000000000000003e-02  8.6111111111111105e-01  2.9999999999999999e-01
-5.0000000000000003e-02  8.8888888888888884e-01  1.4999999999999999e-01
-5.0000000000000003e-02  8.6111111111111105e-01  1.4999999999999999e-01
5.0000000000000003e-02  8.8888888888888884e-01  0.0000000000000000e+00
5.0000000000000003e-02  8.8888888888888884e-01  2.9999999999999999e-01
5.0000000000000003e-02  8.6111111111111105e-01  0.0000000000000000e+00
5.0000000000000003e-02  8.6111111111111105e-01  2.9999999999999999e-01
5.0000000000000003e-02  8.8888888888888884e-01  1.4999999999999999e-01
5.0000000000000003e-02  8.6111111111111105e-01  1.4999999999999999e-01
-5.0000000000000003e-02  9.4444444444444442e-01  0.0000000000000000e+00
-5.0000000000000003e-02  9.4444444444444442e-01  2.9999999999999999e-01
-5.0000000000000003e-02  9.1666666666666663e-01  0.0000000000000000e+00
-5.0000000000000003e-02  9.1666666666666663e-01  2.9999999999999999e-01
-5.0000000000000003e-02  9.4444444444444442e-01  1.4999999999999999e-01
-5.0000000000000003e-02  9.1666666666666674e-01  1.4999999999999999e-01
5.0000000000000003e-02  9.4444444444444442e-01  0.0000000000000000e+00
5.0000000000000003e-02  9.4444444444444442e-01  2.9999999999999999e-01
5.0000000000000003e-02  9.1666666666666663e-01  0.0000000000000000e+00
5.0000000000000003e-02  9.1666666666666663e-01  2.9999999999999999e-01
5.0000000000000003e-02  9.4444444444444442e-01  1.4999999999999999e-01
5.0000000000000003e-02  9.1666666666666674e-01  1.4999999999999999e-01
-5.0000000000000003e-02  1.0000000000000000e+00  0.0000000000000000e+00
-1.6666666666666670e-02  1.0000000000000000e+00  0.0000000000000000e+00
-5.0000000000000003e-02  1.0000000000000000e+00  2.9999999999999999e-01
-1.6666666666666670e-02  1.0000000000000000e+00  2.9999999999999999e-01
-5.0000000000000003e-02  9.7222222222222221e-01  0.0000000000000000e+00
-3.3333333333333340e-02  1.0000000000000000e+00  0.0000000000000000e+00
-5.0000000000000003e-02  9.7222222222222221e-01  2.9999999999999999e-01
-3.3333333333333340e-02  1.0000000000000000e+00  2.9999999999999999e-01
-5.0000000000000003e-02  1.0000000000000000e+00  1.4999999999999999e-01
-1.6666666666666670e-02  1.0000000000000000e+00  1.4999999999999999e-01
-5.0000000000000003e-02  9.7222222222222221e-01  1.4999999999999999e-01
-3.3333333333333340e-02  1.0000000000000000e+00  1.4999999999999999e-01
1.6666666666666663e-02  1.0000000000000000e+00  0.0000000000000000e+00
1.6666666666666663e-02  1.0000000000000000e+00  2.9999999999999999e-01
-3.4694469519536142e-18  1.0000000000000000e+00  0.0000000000000000e+00
-3.4694469519536142e-18  1.0000000000000000e+00  2.9999999999999999e-01
1.6666666666666663e-02  1.0000000000000000e+00  1.4999999999999999e-01
-3.4694469519536142e-18  1.0000000000000000e+00  1.4999999999999999e-01
5.0000000000000003e-02  1.0000000000000000e+00  0.0000000000000000e+00
5.0000000000000003e-02  1.0000000000000000e+00  2.9999999999999999e-01
5.0000000000000003e-02  9.7222222222222221e-01  0.0000000000000000e+00
3.3333333333333333e-02  1.0000000000000000e+00  0.0000000000000000e+00
5.0000000000000003e-02  9.7222222222222221e-01  2.9999999999999999e-01
3.3333333333333333e-02  1.0000000000000000e+00  2.9999999999999999e-01
5.0000000000000003e-02  1.0000000000000000e+00  1.4999999999999999e-01
5.0000000000000003e-02  9.7222222222222221e-01  1.4999999999999999e-01
3.3333333333333333e-02  1.0000000000000000e+00  1.4999999999999999e-01

CELLS 0 0


CELL_TYPES 0


POINT_DATA 237

VECTORS VertexNormals float

0.0000000000000000e+00 0.0000000000000000e+00 0.0000000000000000e+00 
0.0000000000000000e+00 0.0000000000000000e+00 0.0000000000000000e+00 
0.0000000000000000e+00 0.0000000000000000e+00 0.0000000000000000e+00 
0.0000000000000000e+00 0.0000000000000000e+00 0.0000000000000000e+00 
0.0000000000000000e+00 0.0000000000000000e+00 0.0000000000000000e+00 
0.0000000000000000e+00 0.0000000000000000e+00 0.0000000000000000e+00 
0.0000000000000000e+00 0.0000000000000000e+00 0.0000000000000000e+00 
0.0000000000000000e+00 0.0000000000000000e+00 0.0000000000000000e+00 
0.0000000000000000e+00 0.0000000000000000e+00 0.0000000000000000e+00 
0.0000000000000000e+00 0.0000000000000000e+00 0.0000000000000000e+00 
0.0000000000000000e+00 0.0000000000000000e+00 0.0000000000000000e+00 
0.0000000000000000e+00 0.0000000000000000e+00 0.0000000000000000e+00 
0.0000000000000000e+00 0.0000000000000000e+00 0.0000000000000000e+00 
0.0000000000000000e+00 0.0000000000000000e+00 0.0000000000000000e+00 
0.0000000000000000e+00 0.0000000000000000e+00 0.0000000000000000e+00 
0.0000000000000000e+00 0.0000000000000000e+00 0.0000000000000000e+00 
0.0000000000000000e+00 0.0000000000000000e+00 0.0000000000000000e+00 
0.0000000000000000e+00 0.0000000000000000e+00 0.0000000000000000e+00 
0.0000000000000000e+00 0.0000000000000000e+00 0.0000000000000000e+00 
0.0000000000000000e+00 0.0000000000000000e+00 0.0000000000000000e+00 
0.0000000000000000e+00 0.0000000000000000e+00 0.0000000000000000e+00 
0.0000000000000000e+00 0.0000000000000000e+00 0.0000000000000000e+00 
0.0000000000000000e+00 0.0000000000000000e+00 0.0000000000000000e+00 
0.0000000000000000e+00 0.0000000000000000e+00 0.0000000000000000e+00 
0.0000000000000000e+00 0.0000000000000000e+00 0.0000000000000000e+00 
0.0000000000000000e+00 0.0000000000000000e+00 0.0000000000000000e+00 
0.0000000000000000e+00 0.0000000000000000e+00 0.0000000000000000e+00 
0.0000000000000000e+00 0.0000000000000000e+00 0.0000000000000000e+00 
0.0000000000000000e+00 0.0000000000000000e+00 0.0000000000000000e+00 
0.0000000000000000e+00 0.0000000000000000e+00 0.0000000000000000e+00 
0.0000000000000000e+00 0.0000000000000000e+00 0.0000000000000000e+00 
0.0000000000000000e+00 0.0000000000000000e+00 0.0000000000000000e+00 
0.0000000000000000e+00 0.0000000000000000e+00 0.0000000000000000e+00 
0.0000000000000000e+00 0.0000000000000000e+00 0.0000000000000000e+00 
0.0000000000000000e+00 0.0000000000000000e+00 0.0000000000000000e+00 
0.0000000000000000e+00 0.0000000000000000e+00 0.0000000000000000e+00 
0.0000000000000000e+00 0.0000000000000000e+00 0.0000000000000000e+00 
0.0000000000000000e+00 0.0000000000000000e+00 0.0000000000000000e+00 
0.0000000000000000e+00 0.0000000000000000e+00 0.0000000000000000e+00 
0.0000000000000000e+00 0.0000000000000000e+00 0.0000000000000000e+00 
0.0000000000000000e+00 0.0000000000000000e+00 0.0000000000000000e+00 
0.0000000000000000e+00 0.0000000000000000e+00 0.0000000000000000e+00 
0.0000000000000000e+00 0.0000000000000000e+00 0.0000000000000000e+00 
0.0000000000000000e+00 0.0000000000000000e+00 0.0000000000000000e+00 
0.0000000000000000e+00 0.0000000000000000e+00 0.0000000000000000e+00 
0.0000000000000000e+00 0.0000000000000000e+00 0.0000000000000000e+00 
0.0000000000000000e+00 0.0000000000000000e+00 0.0000000000000000e+00 
0.0000000000000000e+00 0.0000000000000000e+00 0.0000000000000000e+00 
0.0000000000000000e+00 0.0000000000000000e+00 0.0000000000000000e+00 
0.0000000000000000e+00 0.0000000000000000e+00 0.0000000000000000e+00 
0.0000000000000000e+00 0.0000000000000000e+00 0.0000000000000000e+00 
0.0000000000000000e+00 0.0000000000000000e+00 0.0000000000000000e+00 
0.0000000000000000e+00 0.0000000000000000e+00 0.0000000000000000e+00 
0.0000000000000000e+00 0.0000000000000000e+00 0.0000000000000000e+00 
0.0000000000000000e+00 0.0000000000000000e+00 0.0000000000000000e+00 
0.0000000000000000e+00 0.0000000000000000e+00 0.0000000000000000e+00 
0.0000000000000000e+00 0.0000000000000000e+00 0.0000000000000000e+00 
0.0000000000000000e+00 0.0000000000000000e+00 0.0000000000000000e+00 
0.0000000000000000e+00 0.0000000000000000e+00 0.0000000000000000e+00 
0.0000000000000000e+00 0.0000000000000000e+00 0.0000000000000000e+00 
0.0000000000000000e+00 0.0000000000000000e+00 0.0000000000000000e+00 
0.0000000000000000e+00 0.0000000000000000e+00 0.0000000000000000e+00 
0.0000000000000000e+00 0.0000000000000000e+00 0.0000000000000000e+00 
0.0000000000000000e+00 0.0000000000000000e+00 0.0000000000000000e+00 
0.0000000000000000e+00 0.0000000000000000e+00 0.0000000000000000e+00 
0.0000000000000000e+00 0.0000000000000000e+00 0.0000000000000000e+00 
0.0000000000000000e+00 0.0000000000000000e+00 0.0000000000000000e+00 
0.0000000000000000e+00 0.0000000000000000e+00 0.0000000000000000e+00 
0.0000000000000000e+00 0.0000000000000000e+00 0.0000000000000000e+00 
0.0000000000000000e+00 0.0000000000000000e+00 0.0000000000000000e+00 
0.0000000000000000e+00 0.0000000000000000e+00 0.0000000000000000e+00 
0.0000000000000000e+00 0.0000000000000000e+00 0.0000000000000000e+00 
0.0000000000000000e+00 0.0000000000000000e+00 0.0000000000000000e+00 
0.0000000000000000e+00 0.0000000000000000e+00 0.0000000000000000e+00 
0.0000000000000000e+00 0.0000000000000000e+00 0.0000000000000000e+00 
0.0000000000000000e+00 0.0000000000000000e+00 0.0000000000000000e+00 
0.0000000000000000e+00 0.0000000000000000e+00 0.0000000000000000e+00 
0.0000000000000000e+00 0.0000000000000000e+00 0.0000000000000000e+00 
0.0000000000000000e+00 0.0000000000000000e+00 0.0000000000000000e+00 
0.0000000000000000e+00 0.0000000000000000e+00 0.0000000000000000e+00 
0.0000000000000000e+00 0.0000000000000000e+00 0.0000000000000000e+00 
0.0000000000000000e+00 0.0000000000000000e+00 0.0000000000000000e+00 
0.0000000000000000e+00 0.0000000000000000e+00 0.0000000000000000e+00 
0.0000000000000000e+00 0.0000000000000000e+00 0.0000000000000000e+00 
0.0000000000000000e+00 0.0000000000000000e+00 0.0000000000000000e+00 
0.0000000000000000e+00 0.0000000000000000e+00 0.0000000000000000e+00 
0.0000000000000000e+00 0.0000000000000000e+00 0.0000000000000000e+00 
0.0000000000000000e+00 0.0000000000000000e+00 0.0000000000000000e+00 
0.0000000000000000e+00 0.0000000000000000e+00 0.0000000000000000e+00 
0.0000000000000000e+00 0.0000000000000000e+00 0.0000000000000000e+00 
0.0000000000000000e+00 0.0000000000000000e+00 0.0000000000000000e+00 
0.0000000000000000e+00 0.0000000000000000e+00 0.0000000000000000e+00 
0.0000000000000000e+00 0.0000000000000000e+00 0.0000000000000000e+00 
0.0000000000000000e+00 0.0000000000000000e+00 0.0000000000000000e+00 
0.0000000000000000e+00 0.0000000000000000e+00 0.0000000000000000e+00 
0.0000000000000000e+00 0.0000000000000000e+00 0.0000000000000000e+00 
0.0000000000000000e+00 0.0000000000000000e+00 0.0000000000000000e+00 
0.0000000000000000e+00 0.0000000000000000e+00 0.0000000000000000e+00 
0.0000000000000000e+00 0.0000000000000000e+00 0.0000000000000000e+00 
0.0000000000000000e+00 0.0000000000000000e+00 0.0000000000000000e+00 
0.0000000000000000e+00 0.0000000000000000e+00 0.0000000000000000e+00 
0.0000000000000000e+00 0.0000000000000000e+00 0.0000000000000000e+00 
0.0000000000000000e+00 0.0000000000000000e+00 0.0000000000000000e+00 
0.0000000000000000e+00 0.0000000000000000e+00 0.0000000000000000e+00 
0.0000000000000000e+00 0.0000000000000000e+00 0.0000000000000000e+00 
0.0000000000000000e+00 0.0000000000000000e+00 0.0000000000000000e+00 
0.0000000000000000e+00 0.0000000000000000e+00 0.0000000000000000e+00 
0.0000000000000000e+00 0.0000000000000000e+00 0.0000000000000000e+00 
0.0000000000000000e+00 0.0000000000000000e+00 0.0000000000000000e+00 
0.0000000000000000e+00 0.0000000000000000e+00 0.0000000000000000e+00 
0.0000000000000000e+00 0.0000000000000000e+00 0.0000000000000000e+00 
0.0000000000000000e+00 0.0000000000000000e+00 0.0000000000000000e+00 
0.0000000000000000e+00 0.0000000000000000e+00 0.0000000000000000e+00 
0.0000000000000000e+00 0.0000000000000000e+00 0.0000000000000000e+00 
0.0000000000000000e+00 0.0000000000000000e+00 0.0000000000000000e+00 
0.0000000000000000e+00 0.0000000000000000e+00 0.0000000000000000e+00 
0.0000000000000000e+00 0.0000000000000000e+00 0.0000000000000000e+00 
0.0000000000000000e+00 0.0000000000000000e+00 0.0000000000000000e+00 
0.0000000000000000e+00 0.0000000000000000e+00 0.0000000000000000e+00 
0.0000000000000000e+00 0.0000000000000000e+00 0.0000000000000000e+00 
0.0000000000000000e+00 0.0000000000000000e+00 0.0000000000000000e+00 
0.0000000000000000e+00 0.0000000000000000e+00 0.0000000000000000e+00 
0.0000000000000000e+00 0.0000000000000000e+00 0.0000000000000000e+00 
0.0000000000000000e+00 0.0000000000000000e+00 0.0000000000000000e+00 
0.0000000000000000e+00 0.0000000000000000e+00 0.0000000000000000e+00 
0.0000000000000000e+00 0.0000000000000000e+00 0.0000000000000000e+00 
0.0000000000000000e+00 0.0000000000000000e+00 0.0000000000000000e+00 
0.0000000000000000e+00 0.0000000000000000e+00 0.0000000000000000e+00 
0.0000000000000000e+00 0.0000000000000000e+00 0.0000000000000000e+00 
0.0000000000000000e+00 0.0000000000000000e+00 0.0000000000000000e+00 
0.0000000000000000e+00 0.0000000000000000e+00 0.0000000000000000e+00 
0.0000000000000000e+00 0.0000000000000000e+00 0.0000000000000000e+00 
0.0000000000000000e+00 0.0000000000000000e+00 0.0000000000000000e+00 
0.0000000000000000e+00 0.0000000000000000e+00 0.0000000000000000e+00 
0.0000000000000000e+00 0.0000000000000000e+00 0.0000000000000000e+00 
0.0000000000000000e+00 0.0000000000000000e+00 0.0000000000000000e+00 
0.0000000000000000e+00 0.0000000000000000e+00 0.0000000000000000e+00 
0.0000000000000000e+00 0.0000000000000000e+00 0.0000000000000000e+00 
0.0000000000000000e+00 0.0000000000000000e+00 0.0000000000000000e+00 
0.0000000000000000e+00 0.0000000000000000e+00 0.0000000000000000e+00 
0.0000000000000000e+00 0.0000000000000000e+00 0.0000000000000000e+00 
0.0000000000000000e+00 0.0000000000000000e+00 0.0000000000000000e+00 
0.0000000000000000e+00 0.0000000000000000e+00 0.0000000000000000e+00 
0.0000000000000000e+00 0.0000000000000000e+00 0.0000000000000000e+00 
0.0000000000000000e+00 0.0000000000000000e+00 0.0000000000000000e+00 
0.0000000000000000e+00 0.0000000000000000e+00 0.0000000000000000e+00 
0.0000000000000000e+00 0.0000000000000000e+00 0.0000000000000000e+00 
0.0000000000000000e+00 0.0000000000000000e+00 0.0000000000000000e+00 
0.0000000000000000e+00 0.0000000000000000e+00 0.0000000000000000e+00 
0.0000000000000000e+00 0.0000000000000000e+00 0.0000000000000000e+00 
0.0000000000000000e+00 0.0000000000000000e+00 0.0000000000000000e+00 
0.0000000000000000e+00 0.0000000000000000e+00 0.0000000000000000e+00 
0.0000000000000000e+00 0.0000000000000000e+00 0.0000000000000000e+00 
0.0000000000000000e+00 0.0000000000000000e+00 0.0000000000000000e+00 
0.0000000000000000e+00 0.0000000000000000e+00 0.0000000000000000e+00 
0.0000000000000000e+00 0.0000000000000000e+00 0.0000000000000000e+00 
0.0000000000000000e+00 0.0000000000000000e+00 0.0000000000000000e+00 
0.0000000000000000e+00 0.0000000000000000e+00 0.0000000000000000e+00 
0.0000000000000000e+00 0.0000000000000000e+00 0.0000000000000000e+00 
0.0000000000000000e+00 0.0000000000000000e+00 0.0000000000000000e+00 
0.0000000000000000e+00 0.0000000000000000e+00 0.0000000000000000e+00 
0.0000000000000000e+00 0.0000000000000000e+00 0.0000000000000000e+00 
0.0000000000000000e+00 0.0000000000000000e+00 0.0000000000000000e+00 
0.0000000000000000e+00 0.0000000000000000e+00 0.0000000000000000e+00 
0.0000000000000000e+00 0.0000000000000000e+00 0.0000000000000000e+00 
0.0000000000000000e+00 0.0000000000000000e+00 0.0000000000000000e+00 
0.0000000000000000e+00 0.0000000000000000e+00 0.0000000000000000e+00 
0.0000000000000000e+00 0.0000000000000000e+00 0.0000000000000000e+00 
0.0000000000000000e+00 0.0000000000000000e+00 0.0000000000000000e+00 
0.0000000000000000e+00 0.0000000000000000e+00 0.0000000000000000e+00 
0.0000000000000000e+00 0.0000000000000000e+00 0.0000000000000000e+00 
0.0000000000000000e+00 0.0000000000000000e+00 0.0000000000000000e+00 
0.0000000000000000e+00 0.0000000000000000e+00 0.0000000000000000e+00 
0.0000000000000000e+00 0.0000000000000000e+00 0.0000000000000000e+00 
0.0000000000000000e+00 0.0000000000000000e+00 0.0000000000000000e+00 
0.0000000000000000e+00 0.0000000000000000e+00 0.0000000000000000e+00 
0.0000000000000000e+00 0.0000000000000000e+00 0.0000000000000000e+00 
0.0000000000000000e+00 0.0000000000000000e+00 0.0000000000000000e+00 
0.0000000000000000e+00 0.0000000000000000e+00 0.0000000000000000e+00 
0.0000000000000000e+00 0.0000000000000000e+00 0.0000000000000000e+00 
0.0000000000000000e+00 0.0000000000000000e+00 0.0000000000000000e+00 
0.0000000000000000e+00 0.0000000000000000e+00 0.0000000000000000e+00 
0.0000000000000000e+00 0.0000000000000000e+00 0.0000000000000000e+00 
0.0000000000000000e+00 0.0000000000000000e+00 0.0000000000000000e+00 
0.0000000000000000e+00 0.0000000000000000e+00 0.0000000000000000e+00 
0.0000000000000000e+00 0.0000000000000000e+00 0.0000000000000000e+00 
0.0000000000000000e+00 0.0000000000000000e+00 0.0000000000000000e+00 
0.0000000000000000e+00 0.0000000000000000e+00 0.0000000000000000e+00 
0.0000000000000000e+00 0.0000000000000000e+00 0.0000000000000000e+00 
0.0000000000000000e+00 0.0000000000000000e+00 0.0000000000000000e+00 
0.0000000000000000e+00 0.0000000000000000e+00 0.0000000000000000e+00 
0.0000000000000000e+00 0.0000000000000000e+00 0.0000000000000000e+00 
0.0000000000000000e+00 0.0000000000000000e+00 0.0000000000000000e+00 
0.0000000000000000e+00 0.0000000000000000e+00 0.0000000000000000e+00 
0.0000000000000000e+00 0.0000000000000000e+00 0.0000000000000000e+00 
0.0000000000000000e+00 0.0000000000000000e+00 0.0000000000000000e+00 
0.0000000000000000e+00 0.0000000000000000e+00 0.0000000000000000e+00 
0.0000000000000000e+00 0.0000000000000000e+00 0.0000000000000000e+00 
0.0000000000000000e+00 0.0000000000000000e+00 0.0000000000000000e+00 
0.0000000000000000e+00 0.0000000000000000e+00 0.0000000000000000e+00 
0.0000000000000000e+00 0.0000000000000000e+00 0.0000000000000000e+00 
0.0000000000000000e+00 0.0000000000000000e+00 0.0000000000000000e+00 
0.0000000000000000e+00 0.0000000000000000e+00 0.0000000000000000e+00 
0.0000000000000000e+00 0.0000000000000000e+00 0.0000000000000000e+00 
0.0000000000000000e+00 0.0000000000000000e+00 0.0000000000000000e+00 
0.0000000000000000e+00 0.0000000000000000e+00 0.0000000000000000e+00 
0.0000000000000000e+00 0.0000000000000000e+00 0.0000000000000000e+00 
0.0000000000000000e+00 0.0000000000000000e+00 0.0000000000000000e+00 
0.0000000000000000e+00 0.0000000000000000e+00 0.0000000000000000e+00 
0.0000000000000000e+00 0.0000000000000000e+00 0.0000000000000000e+00 
0.0000000000000000e+00 0.0000000000000000e+00 0.0000000000000000e+00 
0.0000000000000000e+00 0.0000000000000000e+00 0.0000000000000000e+00 
0.0000000000000000e+00 0.0000000000000000e+00 0.0000000000000000e+00 
0.0000000000000000e+00 0.0000000000000000e+00 0.0000000000000000e+00 
0.0000000000000000e+00 0.0000000000000000e+00 0.0000000000000000e+00 
0.0000000000000000e+00 0.0000000000000000e+00 0.0000000000000000e+00 
0.0000000000000000e+00 0.0000000000000000e+00 0.0000000000000000e+00 
0.0000000000000000e+00 0.0000000000000000e+00 0.0000000000000000e+00 
0.0000000000000000e+00 0.0000000000000000e+00 0.0000000000000000e+00 
0.0000000000000000e+00 0.0000000000000000e+00 0.0000000000000000e+00 
0.0000000000000000e+00 0.0000000000000000e+00 0.0000000000000000e+00 
0.0000000000000000e+00 0.0000000000000000e+00 0.0000000000000000e+00 
0.0000000000000000e+00 0.0000000000000000e+00 0.0000000000000000e+00 
0.0000000000000000e+00 0.0000000000000000e+00 0.0000000000000000e+00 
0.0000000000000000e+00 0.0000000000000000e+00 0.0000000000000000e+00 
0.0000000000000000e+00 0.0000000000000000e+00 0.0000000000000000e+00 
0.0000000000000000e+00 0.0000000000000000e+00 0.0000000000000000e+00 
0.0000000000000000e+00 0.0000000000000000e+00 0.0000000000000000e+00 
0.0000000000000000e+00 0.0000000000000000e+00 0.0000000000000000e+00 
0.0000000000000000e+00 0.0000000000000000e+00 0.0000000000000000e+00 
0.0000000000000000e+00 0.0000000000000000e+00 0.0000000000000000e+00 
0.0000000000000000e+00 0.0000000000000000e+00 0.0000000000000000e+00 
0.0000000000000000e+00 0.0000000000000000e+00 0.0000000000000000e+00 
0.0000000000000000e+00 0.0000000000000000e+00 0.0000000000000000e+00 
0.0000000000000000e+00 0.0000000000000000e+00 0.0000000000000000e+00 
0.0000000000000000e+00 0.0000000000000000e+00 0.0000000000000000e+00 
0.0000000000000000e+00 0.0000000000000000e+00 0.0000000000000000e+00 

VECTORS Displacement float
0.0000000000000000e+00 0.0000000000000000e+00 0.0000000000000000e+00 
2.0359915506127889e-03 2.4629672202755855e-03 0.0000000000000000e+00 
0.0000000000000000e+00 0.0000000000000000e+00 0.0000000000000000e+00 
2.0360007208520218e-03 2.4629708459733167e-03 0.0000000000000000e+00 
8.5260459069507323e-04 1.2731652088303143e-03 0.0000000000000000e+00 
8.5261454171548618e-04 1.2731688532692841e-03 0.0000000000000000e+00 
0.0000000000000000e+00 0.0000000000000000e+00 0.0000000000000000e+00 
2.0360013242106045e-03 2.4629734940885576e-03 3.2786077251458839e-09 
8.5260625747361914e-04 1.2731681997043675e-03 4.1644778000257634e-10 
0.0000000000000000e+00 0.0000000000000000e+00 0.0000000000000000e+00 
2.1271195008291141e-03 -2.5237933052784552e-03 0.0000000000000000e+00 
0.0000000000000000e+00 0.0000000000000000e+00 0.0000000000000000e+00 
2.1271272525462920e-03 -2.5237920000783106e-03 0.0000000000000000e+00 
8.9349445854709666e-04 -1.3245198148657067e-03 0.0000000000000000e+00 
8.9350218632344301e-04 -1.3245185541041799e-03 0.0000000000000000e+00 
0.0000000000000000e+00 0.0000000000000000e+00 0.0000000000000000e+00 
2.1271218447914322e-03 -2.5237901688266009e-03 7.7696068640567395e-10 
8.9349561483023643e-04 -1.3245201885521969e-03 -4.0334830027167262e-10 
6.3657013459850987e-03 4.5505536857425866e-03 0.0000000000000000e+00 
6.3657171681570524e-03 4.5505568066945400e-03 0.0000000000000000e+00 
3.9479502975481133e-03 3.5686616502298195e-03 0.0000000000000000e+00 
3.9479549606461209e-03 3.5686692350733284e-03 0.0000000000000000e+00 
6.3657106487546647e-03 4.5505625673995832e-03 6.2804432242521213e-09 
3.9479520120693353e-03 3.5686695926519284e-03 3.1171823668319047e-09 
6.3755044593472882e-03 -4.5514013798281976e-03 0.0000000000000000e+00 
6.3755042438318667e-03 -4.5513902086014232e-03 0.0000000000000000e+00 
4.0140570022015667e-03 -3.5951970323765282e-03 0.0000000000000000e+00 
4.0140623381260832e-03 -3.5951919700741302e-03 0.0000000000000000e+00 
6.3755107388338153e-03 -4.5513978536064655e-03 1.2607709441786394e-09 
4.0140564061730624e-03 -3.5952011702956744e-03 4.3573483531847781e-11 
1.2624407258561184e-02 6.1880893198272210e-03 0.0000000000000000e+00 
1.2624415726836393e-02 6.1880858299206698e-03 0.0000000000000000e+00 
9.2593060717409970e-03 5.4158838039384000e-03 0.0000000000000000e+00 
9.2593149799619842e-03 5.4158893599896285e-03 0.0000000000000000e+00 
1.2624408612755100e-02 6.1880912582016516e-03 4.0274511105279116e-09 
9.2593102778727523e-03 5.4158834908067137e-03 2.3638504717326990e-09 
1.2673170687938032e-02 -6.1588195361687442e-03 0.0000000000000000e+00 
1.2673166155307150e-02 -6.1588133897442117e-03 0.0000000000000000e+00 
9.2685584989565702e-03 -5.4105282479773448e-03 0.0000000000000000e+00 
9.2685535008134694e-03 -5.4105276145474581e-03 0.0000000000000000e+00 
1.2673166844368058e-02 -6.1588118825222499e-03 1.4390601481308636e-09 
9.2685577600209561e-03 -5.4105253882483755e-03 -4.8501868396526745e-10 
2.0437315095176895e-02 7.4678380095330290e-03 0.0000000000000000e+00 
2.0437312651417551e-02 7.4678399390055959e-03 0.0000000000000000e+00 
1.6367600900073626e-02 6.8654188922989585e-03 0.0000000000000000e+00 
1.6367602040285652e-02 6.8654224868203457e-03 0.0000000000000000e+00 
2.0437314235337074e-02 7.4678393162856899e-03 1.7533287436553040e-09 
1.6367594838824460e-02 6.8654185642996295e-03 7.3878495148360182e-10 
2.0426422090154092e-02 -7.3896558853292493e-03 0.0000000000000000e+00 
2.0426410642528078e-02 -7.3896515426242586e-03 0.0000000000000000e+00 
1.6412625336764467e-02 -6.7998869237958920e-03 0.0000000000000000e+00 
1.6412626619940640e-02 -6.7998877831554842e-03 0.0000000000000000e+00 
2.0426412910447233e-02 -7.3896510995060489e-03 3.3031030346319119e-09 
1.6412625031594907e-02 -6.7998849977521569e-03 1.1295287552007400e-09 
2.9491729663934697e-02 8.4956067028505635e-03 0.0000000000000000e+00 
2.9491745225094464e-02 8.4956144070532542e-03 0.0000000000000000e+00 
2.4834269476556765e-02 8.0099053062881766e-03 0.0000000000000000e+00 
2.4834271885533499e-02 8.0099134204566769e-03 0.0000000000000000e+00 
2.9491734365432010e-02 8.4956060272652588e-03 5.1492144288542737e-10 
2.4834268466811166e-02 8.0099040362415028e-03 -9.5642790885208752e-10 
2.9518432414016846e-02 -8.3828228582830018e-03 0.0000000000000000e+00 
2.9518430459333746e-02 -8.3828246633892867e-03 0.0000000000000000e+00 
2.4812227414041679e-02 -7.9345652855014222e-03 0.0000000000000000e+00 
2.4812218547595188e-02 -7.9345721828997136e-03 0.0000000000000000e+00 
2.9518434255679085e-02 -8.3828217692671608e-03 3.4907561913306340e-09 
2.4812220637574448e-02 -7.9345715707020842e-03 1.7561513983698731e-09 
3.9572462859362362e-02 9.1482414835314923e-03 0.0000000000000000e+00 
3.9572467809276354e-02 9.1482430397793538e-03 0.0000000000000000e+00 
3.4433241801055829e-02 8.8870774791281158e-03 0.0000000000000000e+00 
3.4433240113285621e-02 8.8870818982219636e-03 0.0000000000000000e+00 
3.9572461712030660e-02 9.1482410145727819e-03 2.0829840756653488e-10 
3.4433235701935391e-02 8.8870771071397747e-03 -7.6402471982022434e-10 
3.9582667847790243e-02 -8.8511756730485745e-03 0.0000000000000000e+00 
3.9582667422742551e-02 -8.8511697282097831e-03 0.0000000000000000e+00 
3.4484419555701112e-02 -8.6766805529501258e-03 0.0000000000000000e+00 
3.4484418195969341e-02 -8.6766855050847795e-03 0.0000000000000000e+00 
3.9582673103743235e-02 -8.8511673952247870e-03 1.1903701472615213e-09 
3.4484422761207806e-02 -8.6766873569198086e-03 2.3795433324918597e-09 
4.9840659435531565e-02 9.3022146506188536e-03 0.0000000000000000e+00 
4.9840673358380334e-02 9.3022218129259308e-03 0.0000000000000000e+00 
4.4729342076679654e-02 9.2584926835335563e-03 0.0000000000000000e+00 
4.4729343355868215e-02 9.2584985264180276e-03 0.0000000000000000e+00 
4.9840660145227936e-02 9.3022247868451424e-03 1.1210313489182941e-09 
4.4729333150264811e-02 9.2584943466021540e-03 -4.1723255314047050e-10 
4.9874370874886748e-02 -8.9421028712302758e-03 0.0000000000000000e+00 
4.9874359778871141e-02 -8.9420960618943370e-03 0.0000000000000000e+00 
4.4719467954328677e-02 -8.9312900652755815e-03 0.0000000000000000e+00 
4.4719471045354522e-02 -8.9312844548526775e-03 0.0000000000000000e+00 
4.9874365096336346e-02 -8.9420963676297809e-03 3.9472130483383404e-09 
4.4719473012247560e-02 -8.9312860415025029e-03 1.1179187318320894e-09 
6.0061110459227351e-02 9.4502425266454783e-03 0.0000000000000000e+00 
6.0061122612810991e-02 9.4502490946855658e-03 0.0000000000000000e+00 
5.4925707409901298e-02 9.3646943405902260e-03 0.0000000000000000e+00 
5.4925716804302763e-02 9.3647021253860825e-03 0.0000000000000000e+00 
6.0061115961518419e-02 9.4502450531207087e-03 4.0289881716213386e-09 
5.4925712402829244e-02 9.3646998628155852e-03 2.5126734838957262e-09 
6.0088730639552279e-02 -8.8840819746779029e-03 0.0000000000000000e+00 
6.0088727594573101e-02 -8.8840817280327437e-03 0.0000000000000000e+00 
5.4998084738184780e-02 -8.9096178840037364e-03 0.0000000000000000e+00 
5.4998078392042009e-02 -8.9096212753623227e-03 0.0000000000000000e+00 
6.0088741019204327e-02 -8.8840769813894587e-03 7.5950674898249619e-10 
5.4998085684374080e-02 -8.9096226721655687e-03 1.0754179919265288e-09 
7.0399008773950389e-02 9.4521395122313528e-03 0.0000000000000000e+00 
7.0399024586455805e-02 9.4521430193360012e-03 0.0000000000000000e+00 
6.5241943764680829e-02 9.4879846393866058e-03 0.0000000000000000e+00 
6.5241948673464709e-02 9.4879913228333983e-03 0.0000000000000000e+00 
7.0399009438396457e-02 9.4521468607640172e-03 5.2333351188899197e-09 
6.5241937971753067e-02 9.4879875271579490e-03 3.3944542567645372e-09 
7.0433516158893428e-02 -8.8218412301554350e-03 0.0000000000000000e+00 
7.0433522812501939e-02 -8.8218312444163782e-03 0.0000000000000000e+00 
6.5218114783168274e-02 -8.8804788079452131e-03 0.0000000000000000e+00 
6.5218126670304744e-02 -8.8804793262423319e-03 0.0000000000000000e+00 
7.0433519182324822e-02 -8.8218326852148692e-03 7.8068469464402444e-10 
6.5218122993567024e-02 -8.8804769027825501e-03 -1.2388186331092263e-09 
8.0558212470174112e-02 9.2093995526140501e-03 0.0000000000000000e+00 
8.0558238690142198e-02 9.2093928091242280e-03 0.0000000000000000e+00 
7.5520849164447221e-02 9.3509604886508231e-03 0.0000000000000000e+00 
7.5520863225249882e-02 9.3509609407089779e-03 0.0000000000000000e+00 
8.0558225666566924e-02 9.2093987230428241e-03 3.6359984507394934e-09 
7.5520854466394227e-02 9.3509638528893307e-03 4.1270915737174740e-09 
8.0531350266321966e-02 -8.3681003754390235e-03 0.0000000000000000e+00 
8.0531348286604437e-02 -8.3681019643090312e-03 0.0000000000000000e+00 
7.5588965790091139e-02 -8.6206270032342866e-03 0.0000000000000000e+00 
7.5588965339766070e-02 -8.6206273970476661e-03 0.0000000000000000e+00 
8.0531351129885909e-02 -8.3680997685973146e-03 3.7763504915507200e-09 
7.5588966940144581e-02 -8.6206283793868570e-03 1.7796235596004741e-09 
9.0104775952559391e-02 8.8791619737233901e-03 0.0000000000000000e+00 
9.0104786319031793e-02 8.8791582054695284e-03 0.0000000000000000e+00 
8.5432840013907690e-02 9.0373097424520134e-03 0.0000000000000000e+00 
8.5432848803302930e-02 9.0373015518081194e-03 0.0000000000000000e+00 
9.0104774700973389e-02 8.8791558202155115e-03 1.4842953864798625e-09 
8.5432842854250485e-02 9.0373025555687599e-03 7.9149541712753847e-10 
9.0115329272347000e-02 -7.9214263484412833e-03 0.0000000000000000e+00 
9.0115323657029470e-02 -7.9214220311401538e-03 0.0000000000000000e+00 
8.5360641101290213e-02 -8.1475892454098940e-03 0.0000000000000000e+00 
8.5360645396902940e-02 -8.1475923834017742e-03 0.0000000000000000e+00 
9.0115329707124867e-02 -7.9214225445160356e-03 4.8127655622983033e-09 
8.5360645008106958e-02 -8.1475946344816558e-03 3.1558484871105648e-09 
9.9101730245361119e-02 8.7496572900915733e-03 0.0000000000000000e+00 
9.9101734071027653e-02 8.7496536897617300e-03 0.0000000000000000e+00 
9.4631327452819852e-02 8.7878896107436329e-03 0.0000000000000000e+00 
9.4631331058733337e-02 8.7878867917819750e-03 0.0000000000000000e+00 
9.9101724348499801e-02 8.7496565442054287e-03 1.9924350143147619e-09 
9.4631318692021807e-02 8.7878833532320181e-03 8.3232326922676869e-10 
9.9123803327940213e-02 -7.5296639708994639e-03 0.0000000000000000e+00 
9.9123788900998197e-02 -7.5296635551145609e-03 0.0000000000000000e+00 
9.4691225784778232e-02 -7.6916461702857663e-03 0.0000000000000000e+00 
9.4691212645138967e-02 -7.6916474177625687e-03 0.0000000000000000e+00 
9.9123803368711738e-02 -7.5296640587378680e-03 4.8226506175718911e-09 
9.4691218945689201e-02 -7.6916496177241306e-03 4.6396885018767352e-09 
1.0793509518217605e-01 8.7465750727937011e-03 0.0000000000000000e+00 
1.0793509173182700e-01 8.7465769491631672e-03 0.0000000000000000e+00 
1.0354070910988303e-01 8.7352681869583854e-03 0.0000000000000000e+00 
1.0354070057346802e-01 8.7352637592691337e-03 0.0000000000000000e+00 
1.0793508597333257e-01 8.7465767361365535e-03 3.7666624635595274e-09 
1.0354070078677510e-01 8.7352658278500861e-03 2.0325537574040167e-09 
1.0797230320584569e-01 -7.4626559462065735e-03 0.0000000000000000e+00 
1.0797229523068161e-01 -7.4626534282032260e-03 0.0000000000000000e+00 
1.0354173751082990e-01 -7.4676832959056135e-03 0.0000000000000000e+00 
1.0354173464207375e-01 -7.4676837437170664e-03 0.0000000000000000e+00 
1.0797231540214161e-01 -7.4626519162313857e-03 1.3326700903831640e-09 
1.0354174675857342e-01 -7.4676860037832214e-03 1.6437951618097556e-09 
1.1682073798131060e-01 8.9061070866511584e-03 0.0000000000000000e+00 
1.1682075856781071e-01 8.9061173854409915e-03 0.0000000000000000e+00 
1.1233101822443595e-01 8.8158440271342443e-03 0.0000000000000000e+00 
1.1233101945111654e-01 8.8158524277494113e-03 0.0000000000000000e+00 
1.1682074669841136e-01 8.9061214576453551e-03 7.8114634163160384e-09 
1.1233100916757607e-01 8.8158520871395394e-03 4.8315361698431216e-09 
1.1689543152941070e-01 -7.5573128028968515e-03 0.0000000000000000e+00 
1.1689543365137042e-01 -7.5573176844159293e-03 0.0000000000000000e+00 
1.1242013220677530e-01 -7.4943938837715163e-03 0.0000000000000000e+00 
1.1242012916355572e-01 -7.4943964500654965e-03 0.0000000000000000e+00 
1.1689544127557897e-01 -7.5573065337057859e-03 7.8291219580082746e-10 
1.1242014154365462e-01 -7.4943933272024503e-03 -2.5466289818140276e-10 
1.2602730987804089e-01 9.0716037925743249e-03 0.0000000000000000e+00 
1.2602733054322846e-01 9.0716028173168182e-03 0.0000000000000000e+00 
1.2138742475635782e-01 8.9947348290065256e-03 0.0000000000000000e+00 
1.2138744266560020e-01 8.9947426151627263e-03 0.0000000000000000e+00 
1.2602731703761350e-01 9.0716057311838409e-03 4.6196774884490596e-09 
1.2138744232163820e-01 8.9947417634642108e-03 6.5513324772624861e-09 
1.2607220934416130e-01 -7.7647815741816659e-03 0.0000000000000000e+00 
1.2607221660730267e-01 -7.7647671110528393e-03 0.0000000000000000e+00 
1.2141595725706239e-01 -7.6638408433143974e-03 0.0000000000000000e+00 
1.2141597274440147e-01 -7.6638385286418604e-03 0.0000000000000000e+00 
1.2607221295894322e-01 -7.7647674436847232e-03 -5.7664403420104958e-10 
1.2141596686110898e-01 -7.6638311105978844e-03 -2.2120733337526983e-09 
1.3542221311344910e-01 9.0806065837270300e-03 0.0000000000000000e+00 
1.3542221507276569e-01 9.0806130149641232e-03 0.0000000000000000e+00 
1.3073905278045708e-01 9.0973201643766710e-03 0.0000000000000000e+00 
1.3073905673758723e-01 9.0973155894660575e-03 0.0000000000000000e+00 
1.3542221229813173e-01 9.0806183546949474e-03 -6.3894427268265329e-10 
1.3073904967554628e-01 9.0973228056075647e-03 -1.3832379995031298e-10 
1.3552156806922966e-01 -7.6865713533090588e-03 0.0000000000000000e+00 
1.3552156353079686e-01 -7.6865571231906470e-03 0.0000000000000000e+00 
1.3083059316871740e-01 -7.7612627882753683e-03 0.0000000000000000e+00 
1.3083059292162252e-01 -7.7612486664161628e-03 0.0000000000000000e+00 
1.3552156361600509e-01 -7.6865635314457576e-03 1.6201733252690579e-09 
1.3083059290293605e-01 -7.7612542850309593e-03 -3.2398380932159203e-10 
1.4472899838065845e-01 9.0586816058469150e-03 0.0000000000000000e+00 
1.4472901532533061e-01 9.0586893487591552e-03 0.0000000000000000e+00 
1.4007830396453896e-01 9.0617008201082025e-03 0.0000000000000000e+00 
1.4007831001615556e-01 9.0617040776505356e-03 0.0000000000000000e+00 
1.4472901785512288e-01 9.0586826972322877e-03 -1.6296869614211421e-09 
1.4007830721700282e-01 9.0617090658777037e-03 -2.0669340353656249e-09 
1.4474724896913957e-01 -7.6780881339374918e-03 0.0000000000000000e+00 
1.4474725828144855e-01 -7.6780811924634165e-03 0.0000000000000000e+00 
1.4011800305914471e-01 -7.6526241686549600e-03 0.0000000000000000e+00 
1.4011800905577601e-01 -7.6526188918015318e-03 0.0000000000000000e+00 
1.4474725604745942e-01 -7.6780938914055765e-03 1.3807286858652478e-09 
1.4011800652789067e-01 -7.6526236864969070e-03 1.1386761560800547e-09 
1.5397629271291172e-01 9.0476774076646681e-03 0.0000000000000000e+00 
1.5404142635325052e-01 3.4837255930261716e-03 0.0000000000000000e+00 
1.5397629305048049e-01 9.0476630611496505e-03 0.0000000000000000e+00 
1.5404142892418449e-01 3.4837266119680192e-03 0.0000000000000000e+00 
1.4935748971398477e-01 9.0525901526831241e-03 0.0000000000000000e+00 
1.5399437169732735e-01 6.2658967881513792e-03 0.0000000000000000e+00 
1.4935749973822102e-01 9.0525835627985173e-03 0.0000000000000000e+00 
1.5399437173558184e-01 6.2658955894162194e-03 0.0000000000000000e+00 
1.5397628388622828e-01 9.0476594747912076e-03 -1.1860467205981040e-09 
1.5404142030408097e-01 3.4837307786547006e-03 -2.5610466882614474e-09 
1.4935750187600444e-01 9.0525763011559592e-03 3.8627602730696083e-10 
1.5399436596800473e-01 6.2658931585469991e-03 -1.2134323104157593e-09 
1.5415515860567733e-01 -2.0736453555554703e-03 0.0000000000000000e+00 
1.5415516419041905e-01 -2.0736420154104786e-03 0.0000000000000000e+00 
1.5409951020831086e-01 7.1045899221301105e-04 0.0000000000000000e+00 
1.5409951545904682e-01 7.1046278206433975e-04 0.0000000000000000e+00 
1.5415516345845898e-01 -2.0736423170239346e-03 -9.0213894523554216e-10 
1.5409951066931998e-01 7.1046516402330272e-04 -3.9990268598137876e-10 
1.5419752186966457e-01 -7.7244579617224730e-03 0.0000000000000000e+00 
1.5419752115713625e-01 -7.7244490868270295e-03 0.0000000000000000e+00 
1.4946530628341903e-01 -7.7150362536674158e-03 0.0000000000000000e+00 
1.5418961999780156e-01 -4.8909488993445450e-03 0.0000000000000000e+00 
1.4946531918216444e-01 -7.7150295491678952e-03 0.0000000000000000e+00 
1.5418962267879352e-01 -4.8909407966159597e-03 0.0000000000000000e+00 
1.5419752441354004e-01 -7.7244613409628233e-03 -1.5411250643477111e-09 
1.4946531705783850e-01 -7.7150433932568468e-03 -1.3652227600058195e-09 
1.5418962535015190e-01 -4.8909502245297054e-03 -4.6202853217164159e-10 

VECTORS Stress float
1.2338717835341451e+02 -4.4558033737141756e+00 -3.4457970295177338e-13 
1.2394590818040700e+02 -6.4209256666463261e+00 -9.4030631055489686e-13 
1.2338717835341451e+02 -4.4558033737141756e+00 -3.4457970295177338e-13 
1.2394590818040700e+02 -6.4209256666463261e+00 -9.4030631055489686e-13 
1.2386167239123637e+02 -4.6546053198735535e+00 -5.5562579603945047e-13 
1.2386167239123637e+02 -4.6546053198735535e+00 -5.5562579603945047e-13 
1.2338717835341451e+02 -4.4558033737141756e+00 -3.4457970295177338e-13 
1.2394590818040700e+02 -6.4209256666463261e+00 -9.4030631055489686e-13 
1.2386167239123637e+02 -4.6546053198735535e+00 -5.5562579603945047e-13 
3.0186746314175565e+01 -1.3002241035522957e+00 -2.6215557719598725e-13 
2.8014789270575534e+01 -1.5294841781490049e+00 -4.2100608860358314e-13 
3.0186746314175565e+01 -1.3002241035522957e+00 -2.6215557719598725e-13 
2.8014789270575534e+01 -1.5294841781490049e+00 -4.2100608860358314e-13 
2.8552835757995069e+01 -1.2118782620427737e+00 -3.6665677985204531e-13 
2.8552835757995069e+01 -1.2118782620427737e+00 -3.6665677985204531e-13 
3.0186746314175565e+01 -1.3002241035522957e+00 -2.6215557719598725e-13 
2.8014789270575534e+01 -1.5294841781490049e+00 -4.2100608860358314e-13 
2.8552835757995069e+01 -1.2118782620427737e+00 -3.6665677985204531e-13 
1.2383872776223370e+02 -1.1534898853814070e+01 -1.5118367772210198e-12 
1.2383872776223370e+02 -1.1534898853814070e+01 -1.5118367772210198e-12 
1.2391354733264677e+02 -9.0355179645305270e+00 -1.3459983738998869e-12 
1.2391354733264677e+02 -9.0355179645305270e+00 -1.3459983738998869e-12 
1.2383872776223370e+02 -1.1534898853814070e+01 -1.5118367772210198e-12 
1.2391354733264677e+02 -9.0355179645305270e+00 -1.3459983738998869e-12 
2.8080572747320730e+01 -2.7642138232333764e+00 -2.9562040403956251e-13 
2.8080572747320730e+01 -2.7642138232333764e+00 -2.9562040403956251e-13 
2.8017241027031559e+01 -2.1278786556846399e+00 -4.0508974866516889e-13 
2.8017241027031559e+01 -2.1278786556846399e+00 -4.0508974866516889e-13 
2.8080572747320730e+01 -2.7642138232333764e+00 -2.9562040403956251e-13 
2.8017241027031559e+01 -2.1278786556846399e+00 -4.0508974866516889e-13 
1.2350987315184784e+02 -1.5342119297587260e+01 -9.9675032445964462e-13 
1.2350987315184784e+02 -1.5342119297587260e+01 -9.9675032445964462e-13 
1.2367028227555545e+02 -1.3556052752973073e+01 -1.3523427923203476e-12 
1.2367028227555545e+02 -1.3556052752973073e+01 -1.3523427923203476e-12 
1.2350987315184784e+02 -1.5342119297587260e+01 -9.9675032445964462e-13 
1.2367028227555545e+02 -1.3556052752973073e+01 -1.3523427923203476e-12 
2.8055622762817165e+01 -3.6538996082754238e+00 -2.5140501865209803e-14 
2.8055622762817165e+01 -3.6538996082754238e+00 -2.5140501865209803e-14 
2.8084688902940002e+01 -3.2595426254815720e+00 -1.1683709499082855e-13 
2.8084688902940002e+01 -3.2595426254815720e+00 -1.1683709499082855e-13 
2.8055622762817165e+01 -3.6538996082754238e+00 -2.5140501865209803e-14 
2.8084688902940002e+01 -3.2595426254815720e+00 -1.1683709499082855e-13 
1.2276544631702041e+02 -1.8242122550891509e+01 2.8770633174964485e-13 
1.2276544631702041e+02 -1.8242122550891509e+01 2.8770633174964485e-13 
1.2314973822099591e+02 -1.6853721254968832e+01 -3.5816635030138030e-13 
1.2314973822099591e+02 -1.6853721254968832e+01 -3.5816635030138030e-13 
1.2276544631702041e+02 -1.8242122550891509e+01 2.8770633174964485e-13 
1.2314973822099591e+02 -1.6853721254968832e+01 -3.5816635030138030e-13 
2.8478121906469141e+01 -4.3666749132148652e+00 -7.0206547841034194e-13 
2.8478121906469141e+01 -4.3666749132148652e+00 -7.0206547841034194e-13 
2.8260785014613930e+01 -4.0424226975053443e+00 -3.1857105342846262e-13 
2.8260785014613930e+01 -4.0424226975053443e+00 -3.1857105342846262e-13 
2.8478121906469141e+01 -4.3666749132148652e+00 -7.0206547841034194e-13 
2.8260785014613930e+01 -4.0424226975053443e+00 -3.1857105342846262e-13 
1.2141348280918805e+02 -2.0651854226416845e+01 6.3857327021608660e-13 
1.2141348280918805e+02 -2.0651854226416845e+01 6.3857327021608660e-13 
1.2216419707374621e+02 -1.9518991673482560e+01 6.0811909919829550e-13 
1.2216419707374621e+02 -1.9518991673482560e+01 6.0811909919829550e-13 
1.2141348280918805e+02 -2.0651854226416845e+01 6.3857327021608660e-13 
1.2216419707374621e+02 -1.9518991673482560e+01 6.0811909919829550e-13 
2.9298194850957088e+01 -5.0956629419874844e+00 -7.9335368102406817e-13 
2.9298194850957088e+01 -5.0956629419874844e+00 -7.9335368102406817e-13 
2.8837777772614800e+01 -4.7368016790842375e+00 -8.4517746761951773e-13 
2.8837777772614800e+01 -4.7368016790842375e+00 -8.4517746761951773e-13 
2.9298194850957088e+01 -5.0956629419874844e+00 -7.9335368102406817e-13 
2.8837777772614800e+01 -4.7368016790842375e+00 -8.4517746761951773e-13 
1.1967810568062305e+02 -2.1703904738134270e+01 4.3848788253430440e-13 
1.1967810568062305e+02 -2.1703904738134270e+01 4.3848788253430440e-13 
1.2062320421610139e+02 -2.1457454397225547e+01 5.6763080102490276e-13 
1.2062320421610139e+02 -2.1457454397225547e+01 5.6763080102490276e-13 
1.1967810568062305e+02 -2.1703904738134270e+01 4.3848788253430440e-13 
1.2062320421610139e+02 -2.1457454397225547e+01 5.6763080102490276e-13 
3.0636169280100603e+01 -5.6106772672083025e+00 -8.0074486586424014e-13 
3.0636169280100603e+01 -5.6106772672083025e+00 -8.0074486586424014e-13 
2.9839785412997344e+01 -5.3654551891265783e+00 -7.6044874677168344e-13 
2.9839785412997344e+01 -5.3654551891265783e+00 -7.6044874677168344e-13 
3.0636169280100603e+01 -5.6106772672083025e+00 -8.0074486586424014e-13 
2.9839785412997344e+01 -5.3654551891265783e+00 -7.6044874677168344e-13 
1.1762184347669290e+02 -2.1566926586197269e+01 1.6439192679912810e-13 
1.1762184347669290e+02 -2.1566926586197269e+01 1.6439192679912810e-13 
1.1874338135469952e+02 -2.1730194164123759e+01 3.0015102737277473e-13 
1.1874338135469952e+02 -2.1730194164123759e+01 3.0015102737277473e-13 
1.1762184347669290e+02 -2.1566926586197269e+01 1.6439192679912810e-13 
1.1874338135469952e+02 -2.1730194164123759e+01 3.0015102737277473e-13 
3.2516519042324944e+01 -5.9082068618643007e+00 -7.4933543848973645e-13 
3.2516519042324944e+01 -5.9082068618643007e+00 -7.4933543848973645e-13 
3.1468381497552400e+01 -5.7397018209683210e+00 -8.3672664152671996e-13 
3.1468381497552400e+01 -5.7397018209683210e+00 -8.3672664152671996e-13 
3.2516519042324944e+01 -5.9082068618643007e+00 -7.4933543848973645e-13 
3.1468381497552400e+01 -5.7397018209683210e+00 -8.3672664152671996e-13 
1.1506521451881395e+02 -2.1132821456738611e+01 -2.2033704882583586e-13 
1.1506521451881395e+02 -2.1132821456738611e+01 -2.2033704882583586e-13 
1.1641905929404152e+02 -2.1343855991296778e+01 2.0030180116486063e-14 
1.1641905929404152e+02 -2.1343855991296778e+01 2.0030180116486063e-14 
1.1506521451881395e+02 -2.1132821456738611e+01 -2.2033704882583586e-13 
1.1641905929404152e+02 -2.1343855991296778e+01 2.0030180116486063e-14 
3.4746143853334843e+01 -6.2750890993518169e+00 -2.5168862052578060e-13 
3.4746143853334843e+01 -6.2750890993518169e+00 -2.5168862052578060e-13 
3.3613053833091953e+01 -6.0681575388091460e+00 -5.6402524727977582e-13 
3.3613053833091953e+01 -6.0681575388091460e+00 -5.6402524727977582e-13 
3.4746143853334843e+01 -6.2750890993518169e+00 -2.5168862052578060e-13 
3.3613053833091953e+01 -6.0681575388091460e+00 -5.6402524727977582e-13 
1.1189976790631886e+02 -2.0599821704373880e+01 -7.6792488303123168e-13 
1.1189976790631886e+02 -2.0599821704373880e+01 -7.6792488303123168e-13 
1.1350572246458296e+02 -2.0915926304645382e+01 -5.6222976939577500e-13 
1.1350572246458296e+02 -2.0915926304645382e+01 -5.6222976939577500e-13 
1.1189976790631886e+02 -2.0599821704373880e+01 -7.6792488303123168e-13 
1.1350572246458296e+02 -2.0915926304645382e+01 -5.6222976939577500e-13 
3.7143460637296812e+01 -6.7312218758243034e+00 3.3150301611908328e-13 
3.7143460637296812e+01 -6.7312218758243034e+00 3.3150301611908328e-13 
3.5950170328606191e+01 -6.5472761053929389e+00 1.4770540712168353e-13 
3.5950170328606191e+01 -6.5472761053929389e+00 1.4770540712168353e-13 
3.7143460637296812e+01 -6.7312218758243034e+00 3.3150301611908328e-13 
3.5950170328606191e+01 -6.5472761053929389e+00 1.4770540712168353e-13 
1.0835377433358599e+02 -1.9204905272731821e+01 -3.5219984129080190e-14 
1.0835377433358599e+02 -1.9204905272731821e+01 -3.5219984129080190e-14 
1.1014956233932389e+02 -1.9980260395562937e+01 -4.8090279637604954e-13 
1.1014956233932389e+02 -1.9980260395562937e+01 -4.8090279637604954e-13 
1.0835377433358599e+02 -1.9204905272731821e+01 -3.5219984129080190e-14 
1.1014956233932389e+02 -1.9980260395562937e+01 -4.8090279637604954e-13 
3.9848652598809394e+01 -6.8365154912316939e+00 -7.6127476148466606e-13 
3.9848652598809394e+01 -6.8365154912316939e+00 -7.6127476148466606e-13 
3.8501886924736027e+01 -6.8400181922165757e+00 -1.4072114383065767e-13 
3.8501886924736027e+01 -6.8400181922165757e+00 -1.4072114383065767e-13 
3.9848652598809394e+01 -6.8365154912316939e+00 -7.6127476148466606e-13 
3.8501886924736027e+01 -6.8400181922165757e+00 -1.4072114383065767e-13 
1.0438114880339754e+02 -1.7272896808971836e+01 5.4217714295497743e-13 
1.0438114880339754e+02 -1.7272896808971836e+01 5.4217714295497743e-13 
1.0644117897246520e+02 -1.8272929991987894e+01 3.2654059032517952e-13 
1.0644117897246520e+02 -1.8272929991987894e+01 3.2654059032517952e-13 
1.0438114880339754e+02 -1.7272896808971836e+01 5.4217714295497743e-13 
1.0644117897246520e+02 -1.8272929991987894e+01 3.2654059032517952e-13 
4.2552788286907344e+01 -6.8609860167014176e+00 -1.0468725070634049e-12 
4.2552788286907344e+01 -6.8609860167014176e+00 -1.0468725070634049e-12 
4.1217911261872132e+01 -6.8376214678730776e+00 -1.0694980251241735e-12 
4.1217911261872132e+01 -6.8376214678730776e+00 -1.0694980251241735e-12 
4.2552788286907344e+01 -6.8609860167014176e+00 -1.0468725070634049e-12 
4.1217911261872132e+01 -6.8376214678730776e+00 -1.0694980251241735e-12 
9.9529783643667315e+01 -1.5714993790723611e+01 -1.8341933303926018e-13 
9.9529783643667315e+01 -1.5714993790723611e+01 -1.8341933303926018e-13 
1.0211991020493542e+02 -1.6385161551115516e+01 4.5539887618966507e-13 
1.0211991020493542e+02 -1.6385161551115516e+01 4.5539887618966507e-13 
9.9529783643667315e+01 -1.5714993790723611e+01 -1.8341933303926018e-13 
1.0211991020493542e+02 -1.6385161551115516e+01 4.5539887618966507e-13 
4.4942710869085431e+01 -7.0179117583020343e+00 -4.7838254696809193e-14 
4.4942710869085431e+01 -7.0179117583020343e+00 -4.7838254696809193e-14 
4.3783658789239098e+01 -6.9009634139736136e+00 -7.4358969304185675e-13 
4.3783658789239098e+01 -6.9009634139736136e+00 -7.4358969304185675e-13 
4.4942710869085431e+01 -7.0179117583020343e+00 -4.7838254696809193e-14 
4.3783658789239098e+01 -6.9009634139736136e+00 -7.4358969304185675e-13 
9.3396356650327448e+01 -1.4577028787145650e+01 -1.8631104762871581e-12 
9.3396356650327448e+01 -1.4577028787145650e+01 -1.8631104762871581e-12 
9.6658227961620014e+01 -1.5133219762898307e+01 -1.0124829270213930e-12 
9.6658227961620014e+01 -1.5133219762898307e+01 -1.0124829270213930e-12 
9.3396356650327448e+01 -1.4577028787145650e+01 -1.8631104762871581e-12 
9.6658227961620014e+01 -1.5133219762898307e+01 -1.0124829270213930e-12 
4.6830436637108619e+01 -7.2664954199815384e+00 1.0459631844550451e-12 
4.6830436637108619e+01 -7.2664954199815384e+00 1.0459631844550451e-12 
4.5935706055160949e+01 -7.1314866577874909e+00 6.4768796532436789e-13 
4.5935706055160949e+01 -7.1314866577874909e+00 6.4768796532436789e-13 
4.6830436637108619e+01 -7.2664954199815384e+00 1.0459631844550451e-12 
4.5935706055160949e+01 -7.1314866577874909e+00 6.4768796532436789e-13 
8.5596102684649281e+01 -1.3751718760605627e+01 -2.6686860826531047e-12 
8.5596102684649281e+01 -1.3751718760605627e+01 -2.6686860826531047e-12 
8.9735293857734405e+01 -1.4060101597869902e+01 -2.5805068658945817e-12 
8.9735293857734405e+01 -1.4060101597869902e+01 -2.5805068658945817e-12 
8.5596102684649281e+01 -1.3751718760605627e+01 -2.6686860826531047e-12 
8.9735293857734405e+01 -1.4060101597869902e+01 -2.5805068658945817e-12 
4.8184468335752513e+01 -7.7613942611334323e+00 1.1878838376979561e-12 
4.8184468335752513e+01 -7.7613942611334323e+00 1.1878838376979561e-12 
4.7566638247352103e+01 -7.4127715380643622e+00 1.2532605882225804e-12 
4.7566638247352103e+01 -7.4127715380643622e+00 1.2532605882225804e-12 
4.8184468335752513e+01 -7.7613942611334323e+00 1.1878838376979561e-12 
4.7566638247352103e+01 -7.4127715380643622e+00 1.2532605882225804e-12 
7.5597803405727518e+01 -1.2394714722602771e+01 -9.8217580592208505e-13 
7.5597803405727518e+01 -1.2394714722602771e+01 -9.8217580592208505e-13 
8.0889673766880946e+01 -1.3494287674711131e+01 -1.9630924954061463e-12 
8.0889673766880946e+01 -1.3494287674711131e+01 -1.9630924954061463e-12 
7.5597803405727518e+01 -1.2394714722602771e+01 -9.8217580592208505e-13 
8.0889673766881060e+01 -1.3494287674711018e+01 -1.9630924954061431e-12 
4.8806285047334370e+01 -8.0687891793935478e+00 2.5034538446348480e-13 
4.8806285047334370e+01 -8.0687891793935478e+00 2.5034538446348480e-13 
4.8673918829991692e+01 -8.2217561770073644e+00 7.9484140117210309e-13 
4.8673918829991692e+01 -8.2217561770073644e+00 7.9484140117210309e-13 
4.8806285047334370e+01 -8.0687891793935478e+00 2.5034538446348480e-13 
4.8673918829991749e+01 -8.2217561770073644e+00 7.9484140117209501e-13 
6.2724848318036948e+01 -8.1544044325968343e+00 1.2741379420315398e-12 
6.2724848318036948e+01 -8.1544044325968343e+00 1.2741379420315398e-12 
6.9616856570011407e+01 -9.4423562716298193e+00 2.1035515573901943e-13 
6.9616856570011407e+01 -9.4423562716298193e+00 2.1035515573901943e-13 
6.2724848318036948e+01 -8.1544044325968343e+00 1.2741379420315398e-12 
6.9616856570011407e+01 -9.4423562716298193e+00 2.1035515573901943e-13 
4.8514951255111839e+01 -6.6029297126827089e+00 -1.5254573346055120e-12 
4.8514951255111839e+01 -6.6029297126827089e+00 -1.5254573346055120e-12 
4.8428765113784692e+01 -6.7157151270196778e+00 -6.2336295531792514e-13 
4.8428765113784692e+01 -6.7157151270196778e+00 -6.2336295531792514e-13 
4.8514951255111839e+01 -6.6029297126827089e+00 -1.5254573346055120e-12 
4.8428765113784692e+01 -6.7157151270196778e+00 -6.2336295531792514e-13 
4.4022173271531756e+01 -2.3471753989375941e+01 1.2837284385779885e-12 
4.4022173271531756e+01 -2.3471753989375941e+01 1.2837284385779885e-12 
5.4453532381432950e+01 -1.7000001049342586e+01 1.5869941050512328e-12 
5.4453532381432950e+01 -1.7000001049342586e+01 1.5869941050512328e-12 
4.4022173271531756e+01 -2.3471753989375941e+01 1.2837284385779885e-12 
5.4453532381433007e+01 -1.7000001049342586e+01 1.5869941050512651e-12 
5.4801493030727187e+01 -1.8888564959249322e+01 -1.9345535199744913e-12 
5.4801493030727187e+01 -1.8888564959249322e+01 -1.9345535199744913e-12 
5.1983497132218830e+01 -1.3638401034098820e+01 -1.9705833695484930e-12 
5.1983497132218830e+01 -1.3638401034098820e+01 -1.9705833695484930e-12 
5.4801493030727187e+01 -1.8888564959249322e+01 -1.9345535199744913e-12 
5.1983497132218801e+01 -1.3638401034098990e+01 -1.9705833695484959e-12 
1.8948451716814844e+01 8.8792827505357650e+01 2.6814661115138328e-13 
1.4967023218006418e+01 9.2393460296030696e+01 -4.1465429287739181e-14 
1.8948451716814844e+01 8.8792827505357650e+01 2.6814661115138328e-13 
1.4967023218006418e+01 9.2393460296030696e+01 -4.1465429287739181e-14 
3.1661509051000110e+01 7.4990560107773376e+00 7.8616165165028399e-13 
1.6763820292028129e+01 9.9666749164828019e+01 -9.6510352851151177e-20 
3.1661509051000110e+01 7.4990560107773376e+00 7.8616165165028399e-13 
1.6763820292028129e+01 9.9666749164828019e+01 -9.6510352851151177e-20 
1.8948451716814844e+01 8.8792827505357650e+01 2.6814661115138328e-13 
1.4967023218006418e+01 9.2393460296030696e+01 -4.1465429287739181e-14 
3.1661509051000110e+01 7.4990560107773376e+00 7.8616165165028399e-13 
1.6763820292028129e+01 9.9666749164828019e+01 -9.6510352851151177e-20 
1.1110000456468839e+01 7.0454029694728376e+01 5.5656485604669086e-14 
1.1110000456468839e+01 7.0454029694728376e+01 5.5656485604669086e-14 
1.3263684595277212e+01 7.9823693419790288e+01 -5.3480806781416036e-17 
1.3263684595277212e+01 7.9823693419790288e+01 -5.3480806781416036e-17 
1.1110000456468839e+01 7.0454029694728376e+01 5.5656485604669086e-14 
1.3263684595277212e+01 7.9823693419790288e+01 -5.3480806781416036e-17 
1.4204707780072582e+01 5.0339150046631858e+01 -3.8919931189550667e-13 
1.4204707780072582e+01 5.0339150046631858e+01 -3.8919931189550667e-13 
4.4211656083835635e+01 -6.7259272898630229e-01 -1.4155259018915126e-12 
1.0296672595693941e+01 6.1631084871620175e+01 4.6137605831031076e-19 
4.4211656083835635e+01 -6.7259272898630229e-01 -1.4155259018915126e-12 
1.0296672595693941e+01 6.1631084871620175e+01 4.6137605831031076e-19 
1.4204707780072582e+01 5.0339150046631858e+01 -3.8919931189550667e-13 
4.4211656083835635e+01 -6.7259272898630229e-01 -1.4155259018915126e-12 
1.0296672595693877e+01 6.1631084871620175e+01 4.6137606558045286e-19 

