# vtk DataFile Version 2.0

ASCII

DATASET UNSTRUCTURED_GRID

POINTS 237 float 

-5.0000000000000003e-02  0.0000000000000000e+00  0.0000000000000000e+00
-5.0000000000000003e-02  5.5555555555555552e-02  0.0000000000000000e+00
-5.0000000000000003e-02  0.0000000000000000e+00  2.9999999999999999e-01
-5.0000000000000003e-02  5.5555555555555552e-02  2.9999999999999999e-01
-5.0000000000000003e-02  2.7777777777777776e-02  0.0000000000000000e+00
-5.0000000000000003e-02  2.7777777777777776e-02  2.9999999999999999e-01
-5.0000000000000003e-02  0.0000000000000000e+00  1.4999999999999999e-01
-5.0000000000000003e-02  5.5555555555555552e-02  1.4999999999999999e-01
-5.0000000000000003e-02  2.7777777777777776e-02  1.4999999999999999e-01
5.0000000000000003e-02  0.0000000000000000e+00  0.0000000000000000e+00
5.0000000000000003e-02  5.5555555555555552e-02  0.0000000000000000e+00
5.0000000000000003e-02  0.0000000000000000e+00  2.9999999999999999e-01
5.0000000000000003e-02  5.5555555555555552e-02  2.9999999999999999e-01
5.0000000000000003e-02  2.7777777777777776e-02  0.0000000000000000e+00
5.0000000000000003e-02  2.7777777777777776e-02  2.9999999999999999e-01
5.0000000000000003e-02  0.0000000000000000e+00  1.4999999999999999e-01
5.0000000000000003e-02  5.5555555555555552e-02  1.4999999999999999e-01
5.0000000000000003e-02  2.7777777777777776e-02  1.4999999999999999e-01
-5.0000000000000003e-02  1.1111111111111110e-01  0.0000000000000000e+00
-5.0000000000000003e-02  1.1111111111111110e-01  2.9999999999999999e-01
-5.0000000000000003e-02  8.3333333333333329e-02  0.0000000000000000e+00
-5.0000000000000003e-02  8.3333333333333329e-02  2.9999999999999999e-01
-5.0000000000000003e-02  1.1111111111111110e-01  1.4999999999999999e-01
-5.0000000000000003e-02  8.3333333333333329e-02  1.4999999999999999e-01
5.0000000000000003e-02  1.1111111111111110e-01  0.0000000000000000e+00
5.0000000000000003e-02  1.1111111111111110e-01  2.9999999999999999e-01
5.0000000000000003e-02  8.3333333333333329e-02  0.0000000000000000e+00
5.0000000000000003e-02  8.3333333333333329e-02  2.9999999999999999e-01
5.0000000000000003e-02  1.1111111111111110e-01  1.4999999999999999e-01
5.0000000000000003e-02  8.3333333333333329e-02  1.4999999999999999e-01
-5.0000000000000003e-02  1.6666666666666666e-01  0.0000000000000000e+00
-5.0000000000000003e-02  1.6666666666666666e-01  2.9999999999999999e-01
-5.0000000000000003e-02  1.3888888888888890e-01  0.0000000000000000e+00
-5.0000000000000003e-02  1.3888888888888890e-01  2.9999999999999999e-01
-5.0000000000000003e-02  1.6666666666666666e-01  1.4999999999999999e-01
-5.0000000000000003e-02  1.3888888888888890e-01  1.4999999999999999e-01
5.0000000000000003e-02  1.6666666666666666e-01  0.0000000000000000e+00
5.0000000000000003e-02  1.6666666666666666e-01  2.9999999999999999e-01
5.0000000000000003e-02  1.3888888888888890e-01  0.0000000000000000e+00
5.0000000000000003e-02  1.3888888888888890e-01  2.9999999999999999e-01
5.0000000000000003e-02  1.6666666666666666e-01  1.4999999999999999e-01
5.0000000000000003e-02  1.3888888888888890e-01  1.4999999999999999e-01
-5.0000000000000003e-02  2.2222222222222221e-01  0.0000000000000000e+00
-5.0000000000000003e-02  2.2222222222222221e-01  2.9999999999999999e-01
-5.0000000000000003e-02  1.9444444444444442e-01  0.0000000000000000e+00
-5.0000000000000003e-02  1.9444444444444442e-01  2.9999999999999999e-01
-5.0000000000000003e-02  2.2222222222222221e-01  1.4999999999999999e-01
-5.0000000000000003e-02  1.9444444444444442e-01  1.4999999999999999e-01
5.0000000000000003e-02  2.2222222222222221e-01  0.0000000000000000e+00
5.0000000000000003e-02  2.2222222222222221e-01  2.9999999999999999e-01
5.0000000000000003e-02  1.9444444444444442e-01  0.0000000000000000e+00
5.0000000000000003e-02  1.9444444444444442e-01  2.9999999999999999e-01
5.0000000000000003e-02  2.2222222222222221e-01  1.4999999999999999e-01
5.0000000000000003e-02  1.9444444444444442e-01  1.4999999999999999e-01
-5.0000000000000003e-02  2.7777777777777779e-01  0.0000000000000000e+00
-5.0000000000000003e-02  2.7777777777777779e-01  2.9999999999999999e-01
-5.0000000000000003e-02  2.5000000000000000e-01  0.0000000000000000e+00
-5.0000000000000003e-02  2.5000000000000000e-01  2.9999999999999999e-01
-5.0000000000000003e-02  2.7777777777777779e-01  1.4999999999999999e-01
-5.0000000000000003e-02  2.5000000000000000e-01  1.4999999999999999e-01
5.0000000000000003e-02  2.7777777777777779e-01  0.0000000000000000e+00
5.0000000000000003e-02  2.7777777777777779e-01  2.9999999999999999e-01
5.0000000000000003e-02  2.5000000000000000e-01  0.0000000000000000e+00
5.0000000000000003e-02  2.5000000000000000e-01  2.9999999999999999e-01
5.0000000000000003e-02  2.7777777777777779e-01  1.4999999999999999e-01
5.0000000000000003e-02  2.5000000000000000e-01  1.4999999999999999e-01
-5.0000000000000003e-02  3.3333333333333331e-01  0.0000000000000000e+00
-5.0000000000000003e-02  3.3333333333333331e-01  2.9999999999999999e-01
-5.0000000000000003e-02  3.0555555555555558e-01  0.0000000000000000e+00
-5.0000000000000003e-02  3.0555555555555558e-01  2.9999999999999999e-01
-5.0000000000000003e-02  3.3333333333333331e-01  1.4999999999999999e-01
-5.0000000000000003e-02  3.0555555555555558e-01  1.4999999999999999e-01
5.0000000000000003e-02  3.3333333333333331e-01  0.0000000000000000e+00
5.0000000000000003e-02  3.3333333333333331e-01  2.9999999999999999e-01
5.0000000000000003e-02  3.0555555555555558e-01  0.0000000000000000e+00
5.0000000000000003e-02  3.0555555555555558e-01  2.9999999999999999e-01
5.0000000000000003e-02  3.3333333333333331e-01  1.4999999999999999e-01
5.0000000000000003e-02  3.0555555555555558e-01  1.4999999999999999e-01
-5.0000000000000003e-02  3.8888888888888884e-01  0.0000000000000000e+00
-5.0000000000000003e-02  3.8888888888888884e-01  2.9999999999999999e-01
-5.0000000000000003e-02  3.6111111111111105e-01  0.0000000000000000e+00
-5.0000000000000003e-02  3.6111111111111105e-01  2.9999999999999999e-01
-5.0000000000000003e-02  3.8888888888888884e-01  1.4999999999999999e-01
-5.0000000000000003e-02  3.6111111111111105e-01  1.4999999999999999e-01
5.0000000000000003e-02  3.8888888888888884e-01  0.0000000000000000e+00
5.0000000000000003e-02  3.8888888888888884e-01  2.9999999999999999e-01
5.0000000000000003e-02  3.6111111111111105e-01  0.0000000000000000e+00
5.0000000000000003e-02  3.6111111111111105e-01  2.9999999999999999e-01
5.0000000000000003e-02  3.8888888888888884e-01  1.4999999999999999e-01
5.0000000000000003e-02  3.6111111111111105e-01  1.4999999999999999e-01
-5.0000000000000003e-02  4.4444444444444442e-01  0.0000000000000000e+00
-5.0000000000000003e-02  4.4444444444444442e-01  2.9999999999999999e-01
-5.0000000000000003e-02  4.1666666666666663e-01  0.0000000000000000e+00
-5.0000000000000003e-02  4.1666666666666663e-01  2.9999999999999999e-01
-5.0000000000000003e-02  4.4444444444444442e-01  1.4999999999999999e-01
-5.0000000000000003e-02  4.1666666666666663e-01  1.4999999999999999e-01
5.0000000000000003e-02  4.4444444444444442e-01  0.0000000000000000e+00
5.0000000000000003e-02  4.4444444444444442e-01  2.9999999999999999e-01
5.0000000000000003e-02  4.1666666666666663e-01  0.0000000000000000e+00
5.0000000000000003e-02  4.1666666666666663e-01  2.9999999999999999e-01
5.0000000000000003e-02  4.4444444444444442e-01  1.4999999999999999e-01
5.0000000000000003e-02  4.1666666666666663e-01  1.4999999999999999e-01
-5.0000000000000003e-02  5.0000000000000000e-01  0.0000000000000000e+00
-5.0000000000000003e-02  5.0000000000000000e-01  2.9999999999999999e-01
-5.0000000000000003e-02  4.7222222222222221e-01  0.0000000000000000e+00
-5.0000000000000003e-02  4.7222222222222221e-01  2.9999999999999999e-01
-5.0000000000000003e-02  5.0000000000000000e-01  1.4999999999999999e-01
-5.0000000000000003e-02  4.7222222222222221e-01  1.4999999999999999e-01
5.0000000000000003e-02  5.0000000000000000e-01  0.0000000000000000e+00
5.0000000000000003e-02  5.0000000000000000e-01  2.9999999999999999e-01
5.0000000000000003e-02  4.7222222222222221e-01  0.0000000000000000e+00
5.0000000000000003e-02  4.7222222222222221e-01  2.9999999999999999e-01
5.0000000000000003e-02  5.0000000000000000e-01  1.4999999999999999e-01
5.0000000000000003e-02  4.7222222222222221e-01  1.4999999999999999e-01
-5.0000000000000003e-02  5.5555555555555558e-01  0.0000000000000000e+00
-5.0000000000000003e-02  5.5555555555555558e-01  2.9999999999999999e-01
-5.0000000000000003e-02  5.2777777777777779e-01  0.0000000000000000e+00
-5.0000000000000003e-02  5.2777777777777779e-01  2.9999999999999999e-01
-5.0000000000000003e-02  5.5555555555555558e-01  1.4999999999999999e-01
-5.0000000000000003e-02  5.2777777777777779e-01  1.4999999999999999e-01
5.0000000000000003e-02  5.5555555555555558e-01  0.0000000000000000e+00
5.0000000000000003e-02  5.5555555555555558e-01  2.9999999999999999e-01
5.0000000000000003e-02  5.2777777777777779e-01  0.0000000000000000e+00
5.0000000000000003e-02  5.2777777777777779e-01  2.9999999999999999e-01
5.0000000000000003e-02  5.5555555555555558e-01  1.4999999999999999e-01
5.0000000000000003e-02  5.2777777777777779e-01  1.4999999999999999e-01
-5.0000000000000003e-02  6.1111111111111105e-01  0.0000000000000000e+00
-5.0000000000000003e-02  6.1111111111111105e-01  2.9999999999999999e-01
-5.0000000000000003e-02  5.8333333333333326e-01  0.0000000000000000e+00
-5.0000000000000003e-02  5.8333333333333326e-01  2.9999999999999999e-01
-5.0000000000000003e-02  6.1111111111111105e-01  1.4999999999999999e-01
-5.0000000000000003e-02  5.8333333333333326e-01  1.4999999999999999e-01
5.0000000000000003e-02  6.1111111111111105e-01  0.0000000000000000e+00
5.0000000000000003e-02  6.1111111111111105e-01  2.9999999999999999e-01
5.0000000000000003e-02  5.8333333333333326e-01  0.0000000000000000e+00
5.0000000000000003e-02  5.8333333333333326e-01  2.9999999999999999e-01
5.0000000000000003e-02  6.1111111111111105e-01  1.4999999999999999e-01
5.0000000000000003e-02  5.8333333333333326e-01  1.4999999999999999e-01
-5.0000000000000003e-02  6.6666666666666663e-01  0.0000000000000000e+00
-5.0000000000000003e-02  6.6666666666666663e-01  2.9999999999999999e-01
-5.0000000000000003e-02  6.3888888888888884e-01  0.0000000000000000e+00
-5.0000000000000003e-02  6.3888888888888884e-01  2.9999999999999999e-01
-5.0000000000000003e-02  6.6666666666666663e-01  1.4999999999999999e-01
-5.0000000000000003e-02  6.3888888888888884e-01  1.4999999999999999e-01
5.0000000000000003e-02  6.6666666666666663e-01  0.0000000000000000e+00
5.0000000000000003e-02  6.6666666666666663e-01  2.9999999999999999e-01
5.0000000000000003e-02  6.3888888888888884e-01  0.0000000000000000e+00
5.0000000000000003e-02  6.3888888888888884e-01  2.9999999999999999e-01
5.0000000000000003e-02  6.6666666666666663e-01  1.4999999999999999e-01
5.0000000000000003e-02  6.3888888888888884e-01  1.4999999999999999e-01
-5.0000000000000003e-02  7.2222222222222221e-01  0.0000000000000000e+00
-5.0000000000000003e-02  7.2222222222222221e-01  2.9999999999999999e-01
-5.0000000000000003e-02  6.9444444444444442e-01  0.0000000000000000e+00
-5.0000000000000003e-02  6.9444444444444442e-01  2.9999999999999999e-01
-5.0000000000000003e-02  7.2222222222222221e-01  1.4999999999999999e-01
-5.0000000000000003e-02  6.9444444444444442e-01  1.4999999999999999e-01
5.0000000000000003e-02  7.2222222222222221e-01  0.0000000000000000e+00
5.0000000000000003e-02  7.2222222222222221e-01  2.9999999999999999e-01
5.0000000000000003e-02  6.9444444444444442e-01  0.0000000000000000e+00
5.0000000000000003e-02  6.9444444444444442e-01  2.9999999999999999e-01
5.0000000000000003e-02  7.2222222222222221e-01  1.4999999999999999e-01
5.0000000000000003e-02  6.9444444444444442e-01  1.4999999999999999e-01
-5.0000000000000003e-02  7.7777777777777768e-01  0.0000000000000000e+00
-5.0000000000000003e-02  7.7777777777777768e-01  2.9999999999999999e-01
-5.0000000000000003e-02  7.5000000000000000e-01  0.0000000000000000e+00
-5.0000000000000003e-02  7.5000000000000000e-01  2.9999999999999999e-01
-5.0000000000000003e-02  7.7777777777777768e-01  1.4999999999999999e-01
-5.0000000000000003e-02  7.5000000000000000e-01  1.4999999999999999e-01
5.0000000000000003e-02  7.7777777777777768e-01  0.0000000000000000e+00
5.0000000000000003e-02  7.7777777777777768e-01  2.9999999999999999e-01
5.0000000000000003e-02  7.5000000000000000e-01  0.0000000000000000e+00
5.0000000000000003e-02  7.5000000000000000e-01  2.9999999999999999e-01
5.0000000000000003e-02  7.7777777777777768e-01  1.4999999999999999e-01
5.0000000000000003e-02  7.5000000000000000e-01  1.4999999999999999e-01
-5.0000000000000003e-02  8.3333333333333326e-01  0.0000000000000000e+00
-5.0000000000000003e-02  8.3333333333333326e-01  2.9999999999999999e-01
-5.0000000000000003e-02  8.0555555555555547e-01  0.0000000000000000e+00
-5.0000000000000003e-02  8.0555555555555547e-01  2.9999999999999999e-01
-5.0000000000000003e-02  8.3333333333333326e-01  1.4999999999999999e-01
-5.0000000000000003e-02  8.0555555555555536e-01  1.4999999999999999e-01
5.0000000000000003e-02  8.3333333333333326e-01  0.0000000000000000e+00
5.0000000000000003e-02  8.3333333333333326e-01  2.9999999999999999e-01
5.0000000000000003e-02  8.0555555555555547e-01  0.0000000000000000e+00
5.0000000000000003e-02  8.0555555555555547e-01  2.9999999999999999e-01
5.0000000000000003e-02  8.3333333333333326e-01  1.4999999999999999e-01
5.0000000000000003e-02  8.0555555555555536e-01  1.4999999999999999e-01
-5.0000000000000003e-02  8.8888888888888884e-01  0.0000000000000000e+00
-5.0000000000000003e-02  8.8888888888888884e-01  2.9999999999999999e-01
-5.0000000000000003e-02  8.6111111111111105e-01  0.0000000000000000e+00
-5.0000000000000003e-02  8.6111111111111105e-01  2.9999999999999999e-01
-5.0000000000000003e-02  8.8888888888888884e-01  1.4999999999999999e-01
-5.0000000000000003e-02  8.6111111111111105e-01  1.4999999999999999e-01
5.0000000000000003e-02  8.8888888888888884e-01  0.0000000000000000e+00
5.0000000000000003e-02  8.8888888888888884e-01  2.9999999999999999e-01
5.0000000000000003e-02  8.6111111111111105e-01  0.0000000000000000e+00
5.0000000000000003e-02  8.6111111111111105e-01  2.9999999999999999e-01
5.0000000000000003e-02  8.8888888888888884e-01  1.4999999999999999e-01
5.0000000000000003e-02  8.6111111111111105e-01  1.4999999999999999e-01
-5.0000000000000003e-02  9.4444444444444442e-01  0.0000000000000000e+00
-5.0000000000000003e-02  9.4444444444444442e-01  2.9999999999999999e-01
-5.0000000000000003e-02  9.1666666666666663e-01  0.0000000000000000e+00
-5.0000000000000003e-02  9.1666666666666663e-01  2.9999999999999999e-01
-5.0000000000000003e-02  9.4444444444444442e-01  1.4999999999999999e-01
-5.0000000000000003e-02  9.1666666666666674e-01  1.4999999999999999e-01
5.0000000000000003e-02  9.4444444444444442e-01  0.0000000000000000e+00
5.0000000000000003e-02  9.4444444444444442e-01  2.9999999999999999e-01
5.0000000000000003e-02  9.1666666666666663e-01  0.0000000000000000e+00
5.0000000000000003e-02  9.1666666666666663e-01  2.9999999999999999e-01
5.0000000000000003e-02  9.4444444444444442e-01  1.4999999999999999e-01
5.0000000000000003e-02  9.1666666666666674e-01  1.4999999999999999e-01
-5.0000000000000003e-02  1.0000000000000000e+00  0.0000000000000000e+00
-1.6666666666666670e-02  1.0000000000000000e+00  0.0000000000000000e+00
-5.0000000000000003e-02  1.0000000000000000e+00  2.9999999999999999e-01
-1.6666666666666670e-02  1.0000000000000000e+00  2.9999999999999999e-01
-5.0000000000000003e-02  9.7222222222222221e-01  0.0000000000000000e+00
-3.3333333333333340e-02  1.0000000000000000e+00  0.0000000000000000e+00
-5.0000000000000003e-02  9.7222222222222221e-01  2.9999999999999999e-01
-3.3333333333333340e-02  1.0000000000000000e+00  2.9999999999999999e-01
-5.0000000000000003e-02  1.0000000000000000e+00  1.4999999999999999e-01
-1.6666666666666670e-02  1.0000000000000000e+00  1.4999999999999999e-01
-5.0000000000000003e-02  9.7222222222222221e-01  1.4999999999999999e-01
-3.3333333333333340e-02  1.0000000000000000e+00  1.4999999999999999e-01
1.6666666666666663e-02  1.0000000000000000e+00  0.0000000000000000e+00
1.6666666666666663e-02  1.0000000000000000e+00  2.9999999999999999e-01
-3.4694469519536142e-18  1.0000000000000000e+00  0.0000000000000000e+00
-3.4694469519536142e-18  1.0000000000000000e+00  2.9999999999999999e-01
1.6666666666666663e-02  1.0000000000000000e+00  1.4999999999999999e-01
-3.4694469519536142e-18  1.0000000000000000e+00  1.4999999999999999e-01
5.0000000000000003e-02  1.0000000000000000e+00  0.0000000000000000e+00
5.0000000000000003e-02  1.0000000000000000e+00  2.9999999999999999e-01
5.0000000000000003e-02  9.7222222222222221e-01  0.0000000000000000e+00
3.3333333333333333e-02  1.0000000000000000e+00  0.0000000000000000e+00
5.0000000000000003e-02  9.7222222222222221e-01  2.9999999999999999e-01
3.3333333333333333e-02  1.0000000000000000e+00  2.9999999999999999e-01
5.0000000000000003e-02  1.0000000000000000e+00  1.4999999999999999e-01
5.0000000000000003e-02  9.7222222222222221e-01  1.4999999999999999e-01
3.3333333333333333e-02  1.0000000000000000e+00  1.4999999999999999e-01

CELLS 0 0


CELL_TYPES 0


POINT_DATA 237

VECTORS VertexNormals float

0.0000000000000000e+00 0.0000000000000000e+00 0.0000000000000000e+00 
0.0000000000000000e+00 0.0000000000000000e+00 0.0000000000000000e+00 
0.0000000000000000e+00 0.0000000000000000e+00 0.0000000000000000e+00 
0.0000000000000000e+00 0.0000000000000000e+00 0.0000000000000000e+00 
0.0000000000000000e+00 0.0000000000000000e+00 0.0000000000000000e+00 
0.0000000000000000e+00 0.0000000000000000e+00 0.0000000000000000e+00 
0.0000000000000000e+00 0.0000000000000000e+00 0.0000000000000000e+00 
0.0000000000000000e+00 0.0000000000000000e+00 0.0000000000000000e+00 
0.0000000000000000e+00 0.0000000000000000e+00 0.0000000000000000e+00 
0.0000000000000000e+00 0.0000000000000000e+00 0.0000000000000000e+00 
0.0000000000000000e+00 0.0000000000000000e+00 0.0000000000000000e+00 
0.0000000000000000e+00 0.0000000000000000e+00 0.0000000000000000e+00 
0.0000000000000000e+00 0.0000000000000000e+00 0.0000000000000000e+00 
0.0000000000000000e+00 0.0000000000000000e+00 0.0000000000000000e+00 
0.0000000000000000e+00 0.0000000000000000e+00 0.0000000000000000e+00 
0.0000000000000000e+00 0.0000000000000000e+00 0.0000000000000000e+00 
0.0000000000000000e+00 0.0000000000000000e+00 0.0000000000000000e+00 
0.0000000000000000e+00 0.0000000000000000e+00 0.0000000000000000e+00 
0.0000000000000000e+00 0.0000000000000000e+00 0.0000000000000000e+00 
0.0000000000000000e+00 0.0000000000000000e+00 0.0000000000000000e+00 
0.0000000000000000e+00 0.0000000000000000e+00 0.0000000000000000e+00 
0.0000000000000000e+00 0.0000000000000000e+00 0.0000000000000000e+00 
0.0000000000000000e+00 0.0000000000000000e+00 0.0000000000000000e+00 
0.0000000000000000e+00 0.0000000000000000e+00 0.0000000000000000e+00 
0.0000000000000000e+00 0.0000000000000000e+00 0.0000000000000000e+00 
0.0000000000000000e+00 0.0000000000000000e+00 0.0000000000000000e+00 
0.0000000000000000e+00 0.0000000000000000e+00 0.0000000000000000e+00 
0.0000000000000000e+00 0.0000000000000000e+00 0.0000000000000000e+00 
0.0000000000000000e+00 0.0000000000000000e+00 0.0000000000000000e+00 
0.0000000000000000e+00 0.0000000000000000e+00 0.0000000000000000e+00 
0.0000000000000000e+00 0.0000000000000000e+00 0.0000000000000000e+00 
0.0000000000000000e+00 0.0000000000000000e+00 0.0000000000000000e+00 
0.0000000000000000e+00 0.0000000000000000e+00 0.0000000000000000e+00 
0.0000000000000000e+00 0.0000000000000000e+00 0.0000000000000000e+00 
0.0000000000000000e+00 0.0000000000000000e+00 0.0000000000000000e+00 
0.0000000000000000e+00 0.0000000000000000e+00 0.0000000000000000e+00 
0.0000000000000000e+00 0.0000000000000000e+00 0.0000000000000000e+00 
0.0000000000000000e+00 0.0000000000000000e+00 0.0000000000000000e+00 
0.0000000000000000e+00 0.0000000000000000e+00 0.0000000000000000e+00 
0.0000000000000000e+00 0.0000000000000000e+00 0.0000000000000000e+00 
0.0000000000000000e+00 0.0000000000000000e+00 0.0000000000000000e+00 
0.0000000000000000e+00 0.0000000000000000e+00 0.0000000000000000e+00 
0.0000000000000000e+00 0.0000000000000000e+00 0.0000000000000000e+00 
0.0000000000000000e+00 0.0000000000000000e+00 0.0000000000000000e+00 
0.0000000000000000e+00 0.0000000000000000e+00 0.0000000000000000e+00 
0.0000000000000000e+00 0.0000000000000000e+00 0.0000000000000000e+00 
0.0000000000000000e+00 0.0000000000000000e+00 0.0000000000000000e+00 
0.0000000000000000e+00 0.0000000000000000e+00 0.0000000000000000e+00 
0.0000000000000000e+00 0.0000000000000000e+00 0.0000000000000000e+00 
0.0000000000000000e+00 0.0000000000000000e+00 0.0000000000000000e+00 
0.0000000000000000e+00 0.0000000000000000e+00 0.0000000000000000e+00 
0.0000000000000000e+00 0.0000000000000000e+00 0.0000000000000000e+00 
0.0000000000000000e+00 0.0000000000000000e+00 0.0000000000000000e+00 
0.0000000000000000e+00 0.0000000000000000e+00 0.0000000000000000e+00 
0.0000000000000000e+00 0.0000000000000000e+00 0.0000000000000000e+00 
0.0000000000000000e+00 0.0000000000000000e+00 0.0000000000000000e+00 
0.0000000000000000e+00 0.0000000000000000e+00 0.0000000000000000e+00 
0.0000000000000000e+00 0.0000000000000000e+00 0.0000000000000000e+00 
0.0000000000000000e+00 0.0000000000000000e+00 0.0000000000000000e+00 
0.0000000000000000e+00 0.0000000000000000e+00 0.0000000000000000e+00 
0.0000000000000000e+00 0.0000000000000000e+00 0.0000000000000000e+00 
0.0000000000000000e+00 0.0000000000000000e+00 0.0000000000000000e+00 
0.0000000000000000e+00 0.0000000000000000e+00 0.0000000000000000e+00 
0.0000000000000000e+00 0.0000000000000000e+00 0.0000000000000000e+00 
0.0000000000000000e+00 0.0000000000000000e+00 0.0000000000000000e+00 
0.0000000000000000e+00 0.0000000000000000e+00 0.0000000000000000e+00 
0.0000000000000000e+00 0.0000000000000000e+00 0.0000000000000000e+00 
0.0000000000000000e+00 0.0000000000000000e+00 0.0000000000000000e+00 
0.0000000000000000e+00 0.0000000000000000e+00 0.0000000000000000e+00 
0.0000000000000000e+00 0.0000000000000000e+00 0.0000000000000000e+00 
0.0000000000000000e+00 0.0000000000000000e+00 0.0000000000000000e+00 
0.0000000000000000e+00 0.0000000000000000e+00 0.0000000000000000e+00 
0.0000000000000000e+00 0.0000000000000000e+00 0.0000000000000000e+00 
0.0000000000000000e+00 0.0000000000000000e+00 0.0000000000000000e+00 
0.0000000000000000e+00 0.0000000000000000e+00 0.0000000000000000e+00 
0.0000000000000000e+00 0.0000000000000000e+00 0.0000000000000000e+00 
0.0000000000000000e+00 0.0000000000000000e+00 0.0000000000000000e+00 
0.0000000000000000e+00 0.0000000000000000e+00 0.0000000000000000e+00 
0.0000000000000000e+00 0.0000000000000000e+00 0.0000000000000000e+00 
0.0000000000000000e+00 0.0000000000000000e+00 0.0000000000000000e+00 
0.0000000000000000e+00 0.0000000000000000e+00 0.0000000000000000e+00 
0.0000000000000000e+00 0.0000000000000000e+00 0.0000000000000000e+00 
0.0000000000000000e+00 0.0000000000000000e+00 0.0000000000000000e+00 
0.0000000000000000e+00 0.0000000000000000e+00 0.0000000000000000e+00 
0.0000000000000000e+00 0.0000000000000000e+00 0.0000000000000000e+00 
0.0000000000000000e+00 0.0000000000000000e+00 0.0000000000000000e+00 
0.0000000000000000e+00 0.0000000000000000e+00 0.0000000000000000e+00 
0.0000000000000000e+00 0.0000000000000000e+00 0.0000000000000000e+00 
0.0000000000000000e+00 0.0000000000000000e+00 0.0000000000000000e+00 
0.0000000000000000e+00 0.0000000000000000e+00 0.0000000000000000e+00 
0.0000000000000000e+00 0.0000000000000000e+00 0.0000000000000000e+00 
0.0000000000000000e+00 0.0000000000000000e+00 0.0000000000000000e+00 
0.0000000000000000e+00 0.0000000000000000e+00 0.0000000000000000e+00 
0.0000000000000000e+00 0.0000000000000000e+00 0.0000000000000000e+00 
0.0000000000000000e+00 0.0000000000000000e+00 0.0000000000000000e+00 
0.0000000000000000e+00 0.0000000000000000e+00 0.0000000000000000e+00 
0.0000000000000000e+00 0.0000000000000000e+00 0.0000000000000000e+00 
0.0000000000000000e+00 0.0000000000000000e+00 0.0000000000000000e+00 
0.0000000000000000e+00 0.0000000000000000e+00 0.0000000000000000e+00 
0.0000000000000000e+00 0.0000000000000000e+00 0.0000000000000000e+00 
0.0000000000000000e+00 0.0000000000000000e+00 0.0000000000000000e+00 
0.0000000000000000e+00 0.0000000000000000e+00 0.0000000000000000e+00 
0.0000000000000000e+00 0.0000000000000000e+00 0.0000000000000000e+00 
0.0000000000000000e+00 0.0000000000000000e+00 0.0000000000000000e+00 
0.0000000000000000e+00 0.0000000000000000e+00 0.0000000000000000e+00 
0.0000000000000000e+00 0.0000000000000000e+00 0.0000000000000000e+00 
0.0000000000000000e+00 0.0000000000000000e+00 0.0000000000000000e+00 
0.0000000000000000e+00 0.0000000000000000e+00 0.0000000000000000e+00 
0.0000000000000000e+00 0.0000000000000000e+00 0.0000000000000000e+00 
0.0000000000000000e+00 0.0000000000000000e+00 0.0000000000000000e+00 
0.0000000000000000e+00 0.0000000000000000e+00 0.0000000000000000e+00 
0.0000000000000000e+00 0.0000000000000000e+00 0.0000000000000000e+00 
0.0000000000000000e+00 0.0000000000000000e+00 0.0000000000000000e+00 
0.0000000000000000e+00 0.0000000000000000e+00 0.0000000000000000e+00 
0.0000000000000000e+00 0.0000000000000000e+00 0.0000000000000000e+00 
0.0000000000000000e+00 0.0000000000000000e+00 0.0000000000000000e+00 
0.0000000000000000e+00 0.0000000000000000e+00 0.0000000000000000e+00 
0.0000000000000000e+00 0.0000000000000000e+00 0.0000000000000000e+00 
0.0000000000000000e+00 0.0000000000000000e+00 0.0000000000000000e+00 
0.0000000000000000e+00 0.0000000000000000e+00 0.0000000000000000e+00 
0.0000000000000000e+00 0.0000000000000000e+00 0.0000000000000000e+00 
0.0000000000000000e+00 0.0000000000000000e+00 0.0000000000000000e+00 
0.0000000000000000e+00 0.0000000000000000e+00 0.0000000000000000e+00 
0.0000000000000000e+00 0.0000000000000000e+00 0.0000000000000000e+00 
0.0000000000000000e+00 0.0000000000000000e+00 0.0000000000000000e+00 
0.0000000000000000e+00 0.0000000000000000e+00 0.0000000000000000e+00 
0.0000000000000000e+00 0.0000000000000000e+00 0.0000000000000000e+00 
0.0000000000000000e+00 0.0000000000000000e+00 0.0000000000000000e+00 
0.0000000000000000e+00 0.0000000000000000e+00 0.0000000000000000e+00 
0.0000000000000000e+00 0.0000000000000000e+00 0.0000000000000000e+00 
0.0000000000000000e+00 0.0000000000000000e+00 0.0000000000000000e+00 
0.0000000000000000e+00 0.0000000000000000e+00 0.0000000000000000e+00 
0.0000000000000000e+00 0.0000000000000000e+00 0.0000000000000000e+00 
0.0000000000000000e+00 0.0000000000000000e+00 0.0000000000000000e+00 
0.0000000000000000e+00 0.0000000000000000e+00 0.0000000000000000e+00 
0.0000000000000000e+00 0.0000000000000000e+00 0.0000000000000000e+00 
0.0000000000000000e+00 0.0000000000000000e+00 0.0000000000000000e+00 
0.0000000000000000e+00 0.0000000000000000e+00 0.0000000000000000e+00 
0.0000000000000000e+00 0.0000000000000000e+00 0.0000000000000000e+00 
0.0000000000000000e+00 0.0000000000000000e+00 0.0000000000000000e+00 
0.0000000000000000e+00 0.0000000000000000e+00 0.0000000000000000e+00 
0.0000000000000000e+00 0.0000000000000000e+00 0.0000000000000000e+00 
0.0000000000000000e+00 0.0000000000000000e+00 0.0000000000000000e+00 
0.0000000000000000e+00 0.0000000000000000e+00 0.0000000000000000e+00 
0.0000000000000000e+00 0.0000000000000000e+00 0.0000000000000000e+00 
0.0000000000000000e+00 0.0000000000000000e+00 0.0000000000000000e+00 
0.0000000000000000e+00 0.0000000000000000e+00 0.0000000000000000e+00 
0.0000000000000000e+00 0.0000000000000000e+00 0.0000000000000000e+00 
0.0000000000000000e+00 0.0000000000000000e+00 0.0000000000000000e+00 
0.0000000000000000e+00 0.0000000000000000e+00 0.0000000000000000e+00 
0.0000000000000000e+00 0.0000000000000000e+00 0.0000000000000000e+00 
0.0000000000000000e+00 0.0000000000000000e+00 0.0000000000000000e+00 
0.0000000000000000e+00 0.0000000000000000e+00 0.0000000000000000e+00 
0.0000000000000000e+00 0.0000000000000000e+00 0.0000000000000000e+00 
0.0000000000000000e+00 0.0000000000000000e+00 0.0000000000000000e+00 
0.0000000000000000e+00 0.0000000000000000e+00 0.0000000000000000e+00 
0.0000000000000000e+00 0.0000000000000000e+00 0.0000000000000000e+00 
0.0000000000000000e+00 0.0000000000000000e+00 0.0000000000000000e+00 
0.0000000000000000e+00 0.0000000000000000e+00 0.0000000000000000e+00 
0.0000000000000000e+00 0.0000000000000000e+00 0.0000000000000000e+00 
0.0000000000000000e+00 0.0000000000000000e+00 0.0000000000000000e+00 
0.0000000000000000e+00 0.0000000000000000e+00 0.0000000000000000e+00 
0.0000000000000000e+00 0.0000000000000000e+00 0.0000000000000000e+00 
0.0000000000000000e+00 0.0000000000000000e+00 0.0000000000000000e+00 
0.0000000000000000e+00 0.0000000000000000e+00 0.0000000000000000e+00 
0.0000000000000000e+00 0.0000000000000000e+00 0.0000000000000000e+00 
0.0000000000000000e+00 0.0000000000000000e+00 0.0000000000000000e+00 
0.0000000000000000e+00 0.0000000000000000e+00 0.0000000000000000e+00 
0.0000000000000000e+00 0.0000000000000000e+00 0.0000000000000000e+00 
0.0000000000000000e+00 0.0000000000000000e+00 0.0000000000000000e+00 
0.0000000000000000e+00 0.0000000000000000e+00 0.0000000000000000e+00 
0.0000000000000000e+00 0.0000000000000000e+00 0.0000000000000000e+00 
0.0000000000000000e+00 0.0000000000000000e+00 0.0000000000000000e+00 
0.0000000000000000e+00 0.0000000000000000e+00 0.0000000000000000e+00 
0.0000000000000000e+00 0.0000000000000000e+00 0.0000000000000000e+00 
0.0000000000000000e+00 0.0000000000000000e+00 0.0000000000000000e+00 
0.0000000000000000e+00 0.0000000000000000e+00 0.0000000000000000e+00 
0.0000000000000000e+00 0.0000000000000000e+00 0.0000000000000000e+00 
0.0000000000000000e+00 0.0000000000000000e+00 0.0000000000000000e+00 
0.0000000000000000e+00 0.0000000000000000e+00 0.0000000000000000e+00 
0.0000000000000000e+00 0.0000000000000000e+00 0.0000000000000000e+00 
0.0000000000000000e+00 0.0000000000000000e+00 0.0000000000000000e+00 
0.0000000000000000e+00 0.0000000000000000e+00 0.0000000000000000e+00 
0.0000000000000000e+00 0.0000000000000000e+00 0.0000000000000000e+00 
0.0000000000000000e+00 0.0000000000000000e+00 0.0000000000000000e+00 
0.0000000000000000e+00 0.0000000000000000e+00 0.0000000000000000e+00 
0.0000000000000000e+00 0.0000000000000000e+00 0.0000000000000000e+00 
0.0000000000000000e+00 0.0000000000000000e+00 0.0000000000000000e+00 
0.0000000000000000e+00 0.0000000000000000e+00 0.0000000000000000e+00 
0.0000000000000000e+00 0.0000000000000000e+00 0.0000000000000000e+00 
0.0000000000000000e+00 0.0000000000000000e+00 0.0000000000000000e+00 
0.0000000000000000e+00 0.0000000000000000e+00 0.0000000000000000e+00 
0.0000000000000000e+00 0.0000000000000000e+00 0.0000000000000000e+00 
0.0000000000000000e+00 0.0000000000000000e+00 0.0000000000000000e+00 
0.0000000000000000e+00 0.0000000000000000e+00 0.0000000000000000e+00 
0.0000000000000000e+00 0.0000000000000000e+00 0.0000000000000000e+00 
0.0000000000000000e+00 0.0000000000000000e+00 0.0000000000000000e+00 
0.0000000000000000e+00 0.0000000000000000e+00 0.0000000000000000e+00 
0.0000000000000000e+00 0.0000000000000000e+00 0.0000000000000000e+00 
0.0000000000000000e+00 0.0000000000000000e+00 0.0000000000000000e+00 
0.0000000000000000e+00 0.0000000000000000e+00 0.0000000000000000e+00 
0.0000000000000000e+00 0.0000000000000000e+00 0.0000000000000000e+00 
0.0000000000000000e+00 0.0000000000000000e+00 0.0000000000000000e+00 
0.0000000000000000e+00 0.0000000000000000e+00 0.0000000000000000e+00 
0.0000000000000000e+00 0.0000000000000000e+00 0.0000000000000000e+00 
0.0000000000000000e+00 0.0000000000000000e+00 0.0000000000000000e+00 
0.0000000000000000e+00 0.0000000000000000e+00 0.0000000000000000e+00 
0.0000000000000000e+00 0.0000000000000000e+00 0.0000000000000000e+00 
0.0000000000000000e+00 0.0000000000000000e+00 0.0000000000000000e+00 
0.0000000000000000e+00 0.0000000000000000e+00 0.0000000000000000e+00 
0.0000000000000000e+00 0.0000000000000000e+00 0.0000000000000000e+00 
0.0000000000000000e+00 0.0000000000000000e+00 0.0000000000000000e+00 
0.0000000000000000e+00 0.0000000000000000e+00 0.0000000000000000e+00 
0.0000000000000000e+00 0.0000000000000000e+00 0.0000000000000000e+00 
0.0000000000000000e+00 0.0000000000000000e+00 0.0000000000000000e+00 
0.0000000000000000e+00 0.0000000000000000e+00 0.0000000000000000e+00 
0.0000000000000000e+00 0.0000000000000000e+00 0.0000000000000000e+00 
0.0000000000000000e+00 0.0000000000000000e+00 0.0000000000000000e+00 
0.0000000000000000e+00 0.0000000000000000e+00 0.0000000000000000e+00 
0.0000000000000000e+00 0.0000000000000000e+00 0.0000000000000000e+00 
0.0000000000000000e+00 0.0000000000000000e+00 0.0000000000000000e+00 
0.0000000000000000e+00 0.0000000000000000e+00 0.0000000000000000e+00 
0.0000000000000000e+00 0.0000000000000000e+00 0.0000000000000000e+00 
0.0000000000000000e+00 0.0000000000000000e+00 0.0000000000000000e+00 
0.0000000000000000e+00 0.0000000000000000e+00 0.0000000000000000e+00 
0.0000000000000000e+00 0.0000000000000000e+00 0.0000000000000000e+00 
0.0000000000000000e+00 0.0000000000000000e+00 0.0000000000000000e+00 
0.0000000000000000e+00 0.0000000000000000e+00 0.0000000000000000e+00 
0.0000000000000000e+00 0.0000000000000000e+00 0.0000000000000000e+00 
0.0000000000000000e+00 0.0000000000000000e+00 0.0000000000000000e+00 
0.0000000000000000e+00 0.0000000000000000e+00 0.0000000000000000e+00 
0.0000000000000000e+00 0.0000000000000000e+00 0.0000000000000000e+00 
0.0000000000000000e+00 0.0000000000000000e+00 0.0000000000000000e+00 
0.0000000000000000e+00 0.0000000000000000e+00 0.0000000000000000e+00 
0.0000000000000000e+00 0.0000000000000000e+00 0.0000000000000000e+00 
0.0000000000000000e+00 0.0000000000000000e+00 0.0000000000000000e+00 
0.0000000000000000e+00 0.0000000000000000e+00 0.0000000000000000e+00 

VECTORS Displacement float
0.0000000000000000e+00 0.0000000000000000e+00 0.0000000000000000e+00 
9.3398390767231187e-04 3.5248021622823471e-04 0.0000000000000000e+00 
0.0000000000000000e+00 0.0000000000000000e+00 0.0000000000000000e+00 
9.3398382580891105e-04 3.5248018628129417e-04 0.0000000000000000e+00 
4.6632380045926841e-04 3.1788794801294325e-04 0.0000000000000000e+00 
4.6632372970657754e-04 3.1788766512369125e-04 0.0000000000000000e+00 
0.0000000000000000e+00 0.0000000000000000e+00 0.0000000000000000e+00 
9.3398404297284719e-04 3.5248017002912480e-04 -1.0923724105358981e-10 
4.6632356243848081e-04 3.1788783613249613e-04 7.4415139656951210e-12 
0.0000000000000000e+00 0.0000000000000000e+00 0.0000000000000000e+00 
9.3533440888114456e-04 -3.5546251193444966e-04 0.0000000000000000e+00 
0.0000000000000000e+00 0.0000000000000000e+00 0.0000000000000000e+00 
9.3533474099024259e-04 -3.5546270549835371e-04 0.0000000000000000e+00 
4.8857587630522336e-04 -3.1833639015930803e-04 0.0000000000000000e+00 
4.8857587992902178e-04 -3.1833640471019337e-04 0.0000000000000000e+00 
0.0000000000000000e+00 0.0000000000000000e+00 0.0000000000000000e+00 
9.3533510615031578e-04 -3.5546282714914716e-04 9.3308640903437038e-11 
4.8857598082157315e-04 -3.1833652964270552e-04 -1.4939971653239734e-11 
1.3908143638975586e-03 1.7554593957396454e-04 0.0000000000000000e+00 
1.3908143376491849e-03 1.7554571500332010e-04 0.0000000000000000e+00 
1.2296359604511179e-03 2.7060533479805304e-04 0.0000000000000000e+00 
1.2296362677403513e-03 2.7060533542062188e-04 0.0000000000000000e+00 
1.3908150376726984e-03 1.7554583691622533e-04 -4.9254874519999280e-11 
1.2296360594027855e-03 2.7060533165851997e-04 5.7763205420657671e-11 
1.3923555240732991e-03 -1.8466638621931556e-04 0.0000000000000000e+00 
1.3923561312822149e-03 -1.8466578371831866e-04 0.0000000000000000e+00 
1.2302270248540459e-03 -2.7946994060955158e-04 0.0000000000000000e+00 
1.2302277965841738e-03 -2.7946985038442771e-04 0.0000000000000000e+00 
1.3923559952250869e-03 -1.8466618328690423e-04 1.6814132396186557e-10 
1.2302277035405474e-03 -2.7947022281712524e-04 -1.4331295851401392e-10 
1.5012567790925104e-03 5.0194511890015260e-05 0.0000000000000000e+00 
1.5012564895594436e-03 5.0194163140539896e-05 0.0000000000000000e+00 
1.4710901319966163e-03 1.0233126491441380e-04 0.0000000000000000e+00 
1.4710905553746443e-03 1.0233102978425855e-04 0.0000000000000000e+00 
1.5012568140473290e-03 5.0194271983039593e-05 -1.4087807105274141e-10 
1.4710904766730504e-03 1.0233102441951213e-04 9.7160567769944084e-11 
1.5047764744106455e-03 -5.4794664949138053e-05 0.0000000000000000e+00 
1.5047762097623581e-03 -5.4794488959191242e-05 0.0000000000000000e+00 
1.4738911235792434e-03 -1.0930185840467005e-04 0.0000000000000000e+00 
1.4738908239755434e-03 -1.0930162782803865e-04 0.0000000000000000e+00 
1.5047766098544766e-03 -5.4794425347377136e-05 3.1230396620751534e-10 
1.4738915670656886e-03 -1.0930176163666638e-04 -1.0174277720559026e-10 
1.5030828444160308e-03 2.5558660749115831e-06 0.0000000000000000e+00 
1.5030817470904970e-03 2.5552077900458594e-06 0.0000000000000000e+00 
1.5075007198249815e-03 2.0080159361027806e-05 0.0000000000000000e+00 
1.5075005895100074e-03 2.0079738848959267e-05 0.0000000000000000e+00 
1.5030824974080195e-03 2.5553717021629223e-06 -1.9932725019311669e-10 
1.5075008598064989e-03 2.0079747059419685e-05 -4.6638442720701606e-11 
1.5079742524725136e-03 -3.5134082673585653e-06 0.0000000000000000e+00 
1.5079736647860536e-03 -3.5125036882212298e-06 0.0000000000000000e+00 
1.5117233837913142e-03 -2.2666653685096290e-05 0.0000000000000000e+00 
1.5117232058565690e-03 -2.2666314638931692e-05 0.0000000000000000e+00 
1.5079747617258634e-03 -3.5129831599018661e-06 2.7756320976002668e-10 
1.5117236537258135e-03 -2.2666591760052848e-05 -1.6749016503969916e-12 
1.4840267680917170e-03 -1.1058472137683738e-05 0.0000000000000000e+00 
1.4840246772211256e-03 -1.1059018876884726e-05 0.0000000000000000e+00 
1.4941394318617124e-03 -6.3803708017521790e-06 0.0000000000000000e+00 
1.4941377234102095e-03 -6.3809376599995545e-06 0.0000000000000000e+00 
1.4840256550887002e-03 -1.1058752473699812e-05 -3.3691647464194399e-10 
1.4941387816875802e-03 -6.3809366637025705e-06 -2.1002635233728864e-10 
1.4903652915455943e-03 1.2566203762432415e-05 0.0000000000000000e+00 
1.4903636210163735e-03 1.2566714877978687e-05 0.0000000000000000e+00 
1.4997382529292468e-03 6.7612150274199388e-06 0.0000000000000000e+00 
1.4997367065159978e-03 6.7619032801564170e-06 0.0000000000000000e+00 
1.4903647286913565e-03 1.2565917413734611e-05 3.0492540447640243e-10 
1.4997374806690884e-03 6.7614553156631609e-06 -1.6835485591406461e-11 
1.4620627989263540e-03 -1.5106193551209330e-05 0.0000000000000000e+00 
1.4620605261095811e-03 -1.5106937634187797e-05 0.0000000000000000e+00 
1.4731888099770128e-03 -1.3560177045217785e-05 0.0000000000000000e+00 
1.4731867942893136e-03 -1.3560758076851381e-05 0.0000000000000000e+00 
1.4620622585594539e-03 -1.5106683401754177e-05 -3.8844114862383198e-10 
1.4731885264367508e-03 -1.3560417019675662e-05 -2.7946148843212496e-10 
1.4700086629017639e-03 1.8443629840805724e-05 0.0000000000000000e+00 
1.4700068733852155e-03 1.8444054845339629e-05 0.0000000000000000e+00 
1.4802869000852617e-03 1.6034140711385678e-05 0.0000000000000000e+00 
1.4802849412510765e-03 1.6034443300204609e-05 0.0000000000000000e+00 
1.4700085250270443e-03 1.8443312809669321e-05 4.3889249465746877e-10 
1.4802865793554208e-03 1.6033680075685528e-05 5.8930988257167672e-11 
1.4379473640459041e-03 -1.7473575286674282e-05 0.0000000000000000e+00 
1.4379440839028808e-03 -1.7474449531076645e-05 0.0000000000000000e+00 
1.4503460410699659e-03 -1.6340500771052761e-05 0.0000000000000000e+00 
1.4503436379743821e-03 -1.6341417635735421e-05 0.0000000000000000e+00 
1.4379458170726109e-03 -1.7474116902249581e-05 -4.5402287040460817e-10 
1.4503452249470528e-03 -1.6341085935514386e-05 -3.5666883031108870e-10 
1.4477927185047458e-03 2.2412827576555450e-05 0.0000000000000000e+00 
1.4477899172822065e-03 2.2413271256648759e-05 0.0000000000000000e+00 
1.4591833811047638e-03 2.0486067301882173e-05 0.0000000000000000e+00 
1.4591809506686944e-03 2.0486481729171046e-05 0.0000000000000000e+00 
1.4477916344392192e-03 2.2412680637448426e-05 5.8272237642273180e-10 
1.4591826452249211e-03 2.0485826339832685e-05 2.2220763147318439e-10 
1.4104752072505503e-03 -1.9818773685960786e-05 0.0000000000000000e+00 
1.4104722649720043e-03 -1.9818702752386566e-05 0.0000000000000000e+00 
1.4246878525288505e-03 -1.8634721681548947e-05 0.0000000000000000e+00 
1.4246846558846351e-03 -1.8635024065055711e-05 0.0000000000000000e+00 
1.4104740311371127e-03 -1.9818693426482476e-05 -3.6366958345532971e-10 
1.4246862517876939e-03 -1.8634885659557650e-05 -3.6509308207739411e-10 
1.4226057698562601e-03 2.6461582077814947e-05 0.0000000000000000e+00 
1.4226032313075707e-03 2.6461118245375754e-05 0.0000000000000000e+00 
1.4356183665031176e-03 2.4396259161999839e-05 0.0000000000000000e+00 
1.4356151178305293e-03 2.4396108683303644e-05 0.0000000000000000e+00 
1.4226048266867009e-03 2.6461036729428245e-05 4.8063067254832789e-10 
1.4356167572363515e-03 2.4395772807495334e-05 2.6918891675822616e-10 
1.3788965492711354e-03 -2.2238390562468193e-05 0.0000000000000000e+00 
1.3788952242229434e-03 -2.2238565075041663e-05 0.0000000000000000e+00 
1.3952260449102828e-03 -2.1030110191773685e-05 0.0000000000000000e+00 
1.3952244036831581e-03 -2.1030017787916566e-05 0.0000000000000000e+00 
1.3788963803612457e-03 -2.2238785214527503e-05 -2.2500619418715692e-10 
1.3952258366853637e-03 -2.1030217847935140e-05 -2.1730752414402596e-10 
1.3937992269133117e-03 3.0977980068794870e-05 0.0000000000000000e+00 
1.3937981913275089e-03 3.0977652239738671e-05 0.0000000000000000e+00 
1.4086800579948290e-03 2.8651994647887966e-05 0.0000000000000000e+00 
1.4086783343556339e-03 2.8651476033186666e-05 0.0000000000000000e+00 
1.3937992704606357e-03 3.0977757532130962e-05 3.3059645571578219e-10 
1.4086796567847803e-03 2.8651547880064607e-05 1.0017250924382320e-10 
1.3427616621908881e-03 -2.4563127947595690e-05 0.0000000000000000e+00 
1.3427600672117411e-03 -2.4563668278008430e-05 0.0000000000000000e+00 
1.3614191878537449e-03 -2.3430531411375968e-05 0.0000000000000000e+00 
1.3614180934184963e-03 -2.3430882393017477e-05 0.0000000000000000e+00 
1.3427610554522472e-03 -2.4563731895517630e-05 -2.3501582527556793e-10 
1.3614190447155702e-03 -2.3431106494375906e-05 -1.4662655847368734e-10 
1.3610689173058133e-03 3.6159774279413348e-05 0.0000000000000000e+00 
1.3610676096395646e-03 3.6159766397810663e-05 0.0000000000000000e+00 
1.3779490265153995e-03 3.3469881753609453e-05 0.0000000000000000e+00 
1.3779477761304722e-03 3.3469690407949087e-05 0.0000000000000000e+00 
1.3610685647321890e-03 3.6159444505672230e-05 3.5027376886059967e-10 
1.3779486839506343e-03 3.3469614802204339e-05 3.3185980798074372e-11 
1.3016831167443409e-03 -2.6496807540258850e-05 0.0000000000000000e+00 
1.3016810589162021e-03 -2.6497072982801738e-05 0.0000000000000000e+00 
1.3228752133082207e-03 -2.5611932053620261e-05 0.0000000000000000e+00 
1.3228734916985144e-03 -2.5612291292176030e-05 0.0000000000000000e+00 
1.3016824115746131e-03 -2.6497181396128455e-05 -2.9114984056515914e-10 
1.3228746626225791e-03 -2.5612386098864663e-05 -2.1730000314939241e-10 
1.3240291762626343e-03 4.2293133543098668e-05 0.0000000000000000e+00 
1.3240273319882160e-03 4.2292865164492654e-05 0.0000000000000000e+00 
1.3431121215189722e-03 3.9089134879729725e-05 0.0000000000000000e+00 
1.3431101555853927e-03 3.9088855935657017e-05 0.0000000000000000e+00 
1.3240285843917942e-03 4.2292648304222163e-05 3.8347200481740547e-10 
1.3431114011228586e-03 3.9088566933274946e-05 1.0463630429246313e-10 
1.2552829203314280e-03 -2.7356999515824799e-05 0.0000000000000000e+00 
1.2552809449629962e-03 -2.7356860089710658e-05 0.0000000000000000e+00 
1.2791754235637832e-03 -2.7132415802179336e-05 0.0000000000000000e+00 
1.2791734821723817e-03 -2.7132474391664505e-05 0.0000000000000000e+00 
1.2552822787552044e-03 -2.7357072863102578e-05 -2.7216062709611513e-10 
1.2791748459564732e-03 -2.7132643232086380e-05 -2.4414489357825679e-10 
1.2822495011219556e-03 4.9655083559847299e-05 0.0000000000000000e+00 
1.2822476571798969e-03 4.9654579437884978e-05 0.0000000000000000e+00 
1.3037292178039121e-03 4.5809265945821349e-05 0.0000000000000000e+00 
1.3037271639993679e-03 4.5808775275420263e-05 0.0000000000000000e+00 
1.2822490013010750e-03 4.9654630217620910e-05 3.7470922673236943e-10 
1.3037285065693926e-03 4.5808724070822417e-05 1.3141680884096818e-10 
1.2040278783057188e-03 -2.5673767840356797e-05 0.0000000000000000e+00 
1.2040266385017005e-03 -2.5673445287490982e-05 0.0000000000000000e+00 
1.2301729489660736e-03 -2.6922313303517049e-05 0.0000000000000000e+00 
1.2301715596366816e-03 -2.6922010221349108e-05 0.0000000000000000e+00 
1.2040273660598702e-03 -2.5673889153910892e-05 -1.2881970863942368e-10 
1.2301727404476508e-03 -2.6922446918272935e-05 -1.6179404511928523e-10 
1.2364070604912525e-03 5.8408373536666253e-05 0.0000000000000000e+00 
1.2364061946687410e-03 5.8407817198193343e-05 0.0000000000000000e+00 
1.2596651934438407e-03 5.3825889795714656e-05 0.0000000000000000e+00 
1.2596635959249180e-03 5.3825057393407959e-05 0.0000000000000000e+00 
1.2364069424496721e-03 5.8407905989981176e-05 2.9702273134806347e-10 
1.2596647261591772e-03 5.3825311177021251e-05 8.9891153743995077e-11 
1.1501751087898949e-03 -2.0788169728112456e-05 0.0000000000000000e+00 
1.1501748610630582e-03 -2.0787863721235541e-05 0.0000000000000000e+00 
1.1772932932656180e-03 -2.3531234430287427e-05 0.0000000000000000e+00 
1.1772928114899286e-03 -2.3530840504642231e-05 0.0000000000000000e+00 
1.1501749283025187e-03 -2.0788378881167347e-05 1.0791907269242189e-11 
1.1772934415958992e-03 -2.3531366346523432e-05 -1.4237144104415506e-11 
1.1897840144630934e-03 6.9340572052531874e-05 0.0000000000000000e+00 
1.1897840833605608e-03 6.9340243939058782e-05 0.0000000000000000e+00 
1.2128633557199984e-03 6.3414604755075674e-05 0.0000000000000000e+00 
1.2128627246278225e-03 6.3414024045286676e-05 0.0000000000000000e+00 
1.1897843507140630e-03 6.9340065679723850e-05 1.9385280555767467e-10 
1.2128632565951512e-03 6.3414034530363947e-05 3.5571799165075870e-11 
1.0941967894464296e-03 -1.3231723686067770e-05 0.0000000000000000e+00 
1.0941969998427706e-03 -1.3231480561258121e-05 0.0000000000000000e+00 
1.1224906948900124e-03 -1.7476681034327504e-05 0.0000000000000000e+00 
1.1224908159732034e-03 -1.7476390048851612e-05 0.0000000000000000e+00 
1.0941971702961529e-03 -1.3231830582164897e-05 1.0259671459759156e-10 
1.1224908520892805e-03 -1.7476679825286695e-05 1.0909684465028941e-10 
1.1442146825012536e-03 8.8991482880807336e-05 0.0000000000000000e+00 
1.1442152155254107e-03 8.8991422110251540e-05 0.0000000000000000e+00 
1.1670810993374635e-03 7.7286005826937719e-05 0.0000000000000000e+00 
1.1670812807568695e-03 7.7285874436065118e-05 0.0000000000000000e+00 
1.1442153092974022e-03 8.8991001354424171e-05 6.1433011837472266e-11 
1.1670812721713201e-03 7.7285479498912977e-05 -8.6920934110747004e-11 
1.0315037207295529e-03 -1.1062742494440024e-05 0.0000000000000000e+00 
1.0315041851999733e-03 -1.1062516476653410e-05 0.0000000000000000e+00 
1.0654392373354541e-03 -9.6168980599536380e-06 0.0000000000000000e+00 
1.0654398765322086e-03 -9.6166262777907839e-06 0.0000000000000000e+00 
1.0315040590073471e-03 -1.1062724622357008e-05 1.4408571776173134e-10 
1.0654395514297242e-03 -9.6170099479517044e-06 1.4901947153925657e-10 
1.0909811307946845e-03 1.2781656850485091e-04 0.0000000000000000e+00 
1.0909820723696239e-03 1.2781667432355831e-04 0.0000000000000000e+00 
1.1193774341003858e-03 1.0614525685467174e-04 0.0000000000000000e+00 
1.1193779424988688e-03 1.0614504839293965e-04 0.0000000000000000e+00 
1.0909817878615542e-03 1.2781617464764281e-04 1.2293394615979480e-12 
1.1193777665375797e-03 1.0614468245059578e-04 -1.9127463015003412e-10 
9.0349839946279756e-04 -1.1831142551347177e-05 0.0000000000000000e+00 
9.0349921882612344e-04 -1.1830683290581070e-05 0.0000000000000000e+00 
9.8051903661264391e-04 -2.0663718049386425e-05 0.0000000000000000e+00 
9.8051989918833339e-04 -2.0663532011790733e-05 0.0000000000000000e+00 
9.0349878396197246e-04 -1.1831118271323574e-05 1.8701533564608001e-10 
9.8051968200027441e-04 -2.0663911132008256e-05 2.1283076437991527e-10 
9.8567547923028966e-04 2.0359857986990742e-04 0.0000000000000000e+00 
9.8567641255715684e-04 2.0359849786927270e-04 0.0000000000000000e+00 
1.0524131360366731e-03 1.5752709888217811e-04 0.0000000000000000e+00 
1.0524137450462912e-03 1.5752701336626675e-04 0.0000000000000000e+00 
9.8567637361389698e-04 2.0359819032927227e-04 -7.2380980666719435e-11 
1.0524136792357960e-03 1.5752664415078085e-04 -2.0295410734429512e-10 
8.1284462703161799e-04 1.6688128033627708e-04 0.0000000000000000e+00 
7.8976936547001054e-04 1.5918377708069143e-04 0.0000000000000000e+00 
8.1284627335535679e-04 1.6688156051864630e-04 0.0000000000000000e+00 
7.8977086025717124e-04 1.5918428818568290e-04 0.0000000000000000e+00 
8.2863016930310833e-04 6.4330622654983755e-05 0.0000000000000000e+00 
7.9905216788960626e-04 1.3878333853729758e-04 0.0000000000000000e+00 
8.2863162462246641e-04 6.4331325688895332e-05 0.0000000000000000e+00 
7.9905363074738649e-04 1.3878386662645199e-04 0.0000000000000000e+00 
8.1284519399998077e-04 1.6688097821616579e-04 1.1075548360002164e-10 
7.8976992317447692e-04 1.5918364497740118e-04 2.2238454060868429e-11 
8.2863102014072115e-04 6.4330548012318605e-05 2.0537426086544352e-10 
7.9905284069947680e-04 1.3878326821951855e-04 1.1086828852615142e-10 
7.6537062045826379e-04 2.0214827696508509e-04 0.0000000000000000e+00 
7.6537161988366842e-04 2.0214834036916807e-04 0.0000000000000000e+00 
7.8013548465234522e-04 1.7664824145819448e-04 0.0000000000000000e+00 
7.8013676444302826e-04 1.7664851636362271e-04 0.0000000000000000e+00 
7.6537151742248467e-04 2.0214809699384072e-04 -1.0409233394860445e-10 
7.8013626480577904e-04 1.7664799550043395e-04 -1.0265640922209408e-10 
7.2728583247643451e-04 3.6667731171750027e-04 0.0000000000000000e+00 
7.2728658808171999e-04 3.6667785304664535e-04 0.0000000000000000e+00 
8.7602772853987983e-04 2.8103381313542095e-04 0.0000000000000000e+00 
7.4515644008307899e-04 2.5189527395700159e-04 0.0000000000000000e+00 
8.7602867724092713e-04 2.8103385237077046e-04 0.0000000000000000e+00 
7.4515719868495530e-04 2.5189524596056417e-04 0.0000000000000000e+00 
7.2728683915117710e-04 3.6667701943164806e-04 -4.0650447650971590e-11 
8.7602841385734753e-04 2.8103352613746035e-04 -1.7287045147694800e-10 
7.4515728630822797e-04 2.5189489586355897e-04 -7.8325989230881212e-11 

VECTORS Stress float
1.3835034812372169e+02 -8.7807337245756116e+00 4.9914064454017963e-15 
1.3901348901298934e+02 -6.9871573806540255e-01 -6.0236020439238801e-15 
1.3835034812372169e+02 -8.7807337245756116e+00 4.9914064454017963e-15 
1.3901348901298934e+02 -6.9871573806540255e-01 -6.0236020439238801e-15 
1.3905292775016233e+02 -3.0156755430630255e+00 -5.2772431255989765e-16 
1.3905292775016233e+02 -3.0156755430630255e+00 -5.2772431255989765e-16 
1.3835034812372169e+02 -8.7807337245756116e+00 4.9914064454017963e-15 
1.3901348901298934e+02 -6.9871573806540255e-01 -6.0236020439238801e-15 
1.3905292775016233e+02 -3.0156755430630255e+00 -5.2772431255989765e-16 
8.4300933893435740e+01 -8.1733832958889252e+00 1.4420047061078812e-14 
7.8442732814600276e+01 1.5855299093527719e-01 2.1571767066777814e-14 
8.4300933893435740e+01 -8.1733832958889252e+00 1.4420047061078812e-14 
7.8442732814600276e+01 1.5855299093527719e-01 2.1571767066777814e-14 
7.9553989511619875e+01 -2.0294330231117783e+00 1.7943868433041226e-14 
7.9553989511619875e+01 -2.0294330231117783e+00 1.7943868433041226e-14 
8.4300933893435740e+01 -8.1733832958889252e+00 1.4420047061078812e-14 
7.8442732814600276e+01 1.5855299093527719e-01 2.1571767066777814e-14 
7.9553989511619875e+01 -2.0294330231117783e+00 1.7943868433041226e-14 
1.3877772280158933e+02 -7.4165658969559445e-01 -1.4652268602819851e-14 
1.3877772280158933e+02 -7.4165658969559445e-01 -1.4652268602819851e-14 
1.3889372916768843e+02 -5.6324708950705826e-01 -1.1622478375186210e-14 
1.3889372916768843e+02 -5.6324708950705826e-01 -1.1622478375186210e-14 
1.3877772280158933e+02 -7.4165658969559445e-01 -1.4652268602819851e-14 
1.3889372916768843e+02 -5.6324708950705826e-01 -1.1622478375186210e-14 
8.0226486342471617e+01 -5.2642308652775682e-01 1.6586154477551710e-14 
8.0226486342471617e+01 -5.2642308652775682e-01 1.6586154477551710e-14 
7.9216264112054887e+01 -6.0717891309650440e-02 2.3493084240476317e-14 
7.9216264112054887e+01 -6.0717891309650440e-02 2.3493084240476317e-14 
8.0226486342471617e+01 -5.2642308652775682e-01 1.6586154477551710e-14 
7.9216264112054887e+01 -6.0717891309650440e-02 2.3493084240476317e-14 
1.3827536541326117e+02 -5.3818024736756342e-02 4.7201993960322566e-15 
1.3827536541326117e+02 -5.3818024736756342e-02 4.7201993960322566e-15 
1.3846315122065607e+02 -3.9656563848984661e-01 -1.1316665082549444e-14 
1.3846315122065607e+02 -3.9656563848984661e-01 -1.1316665082549444e-14 
1.3827536541326117e+02 -5.3818024736756342e-02 4.7201993960322566e-15 
1.3846315122065607e+02 -3.9656563848984661e-01 -1.1316665082549444e-14 
8.1690725910033507e+01 -7.4968937955418369e-02 -2.1407716670562555e-14 
8.1690725910033507e+01 -7.4968937955418369e-02 -2.1407716670562555e-14 
8.1007122137960323e+01 -3.3374636519329215e-01 -9.0746269755479493e-16 
8.1007122137960323e+01 -3.3374636519329215e-01 -9.0746269755479493e-16 
8.1690725910033507e+01 -7.4968937955418369e-02 -2.1407716670562555e-14 
8.1007122137960323e+01 -3.3374636519329215e-01 -9.0746269755479493e-16 
1.3743711033245199e+02 1.0491519476272515e-01 9.8931828464194547e-14 
1.3743711033245199e+02 1.0491519476272515e-01 9.8931828464194547e-14 
1.3778851190705609e+02 8.4679531239089556e-02 5.0281601366740851e-14 
1.3778851190705609e+02 8.4679531239089556e-02 5.0281601366740851e-14 
1.3743711033245199e+02 1.0491519476272515e-01 9.8931828464194547e-14 
1.3778851190705609e+02 8.4679531239089556e-02 5.0281601366740851e-14 
8.4136537240476173e+01 9.9721336755465018e-03 -6.9524687172994431e-14 
8.4136537240476173e+01 9.9721336755465018e-03 -6.9524687172994431e-14 
8.2891976877397610e+01 9.9998540317756124e-03 -4.7713290571203964e-14 
8.2891976877397610e+01 9.9998540317756124e-03 -4.7713290571203964e-14 
8.4136537240476173e+01 9.9721336755465018e-03 -6.9524687172994431e-14 
8.2891976877397610e+01 9.9998540317756124e-03 -4.7713290571203964e-14 
1.3632923436824240e+02 1.2778376477217535e-01 1.0245174031737315e-13 
1.3632923436824240e+02 1.2778376477217535e-01 1.0245174031737315e-13 
1.3691669938134874e+02 1.1169940619583940e-01 1.1443837026000623e-13 
1.3691669938134874e+02 1.1169940619583940e-01 1.1443837026000623e-13 
1.3632923436824240e+02 1.2778376477217535e-01 1.0245174031737315e-13 
1.3691669938134874e+02 1.1169940619583940e-01 1.1443837026000623e-13 
8.7449650875874795e+01 3.4705751586443512e-03 -4.9934743053650524e-14 
8.7449650875874795e+01 3.4705751586443512e-03 -4.9934743053650524e-14 
8.5692277503845617e+01 -1.0753906153695425e-03 -6.6601506624602958e-14 
8.5692277503845617e+01 -1.0753906153695425e-03 -6.6601506624602958e-14 
8.7449650875874795e+01 3.4705751586443512e-03 -4.9934743053650524e-14 
8.5692277503845617e+01 -1.0753906153695425e-03 -6.6601506624602958e-14 
1.3490022798079372e+02 1.4841531785714324e-01 1.1610999481058064e-13 
1.3490022798079372e+02 1.4841531785714324e-01 1.1610999481058064e-13 
1.3576559529629412e+02 1.3738388839010440e-01 9.6361424003221735e-14 
1.3576559529629412e+02 1.3738388839010440e-01 9.6361424003221735e-14 
1.3490022798079372e+02 1.4841531785714324e-01 1.1610999481058064e-13 
1.3576559529629412e+02 1.3738388839010440e-01 9.6361424003221735e-14 
9.1657917436201387e+01 6.5661366297717905e-03 -1.0272432277525479e-13 
9.1657917436201387e+01 6.5661366297717905e-03 -1.0272432277525479e-13 
8.9326452045301266e+01 1.1467560359960771e-02 -5.4805417059948261e-14 
8.9326452045301266e+01 1.1467560359960771e-02 -5.4805417059948261e-14 
9.1657917436201387e+01 6.5661366297717905e-03 -1.0272432277525479e-13 
8.9326452045301266e+01 1.1467560359960771e-02 -5.4805417059948261e-14 
1.3314693629123394e+02 1.6738125703523110e-01 1.7713317431050042e-13 
1.3314693629123394e+02 1.6738125703523110e-01 1.7713317431050042e-13 
1.3417070293741926e+02 1.5926340628175240e-01 1.4474603047829511e-13 
1.3417070293741926e+02 1.5926340628175240e-01 1.4474603047829511e-13 
1.3314693629123394e+02 1.6738125703523110e-01 1.7713317431050042e-13 
1.3417070293741926e+02 1.5926340628175240e-01 1.4474603047829511e-13 
9.6886529664749105e+01 1.4039190535186208e-02 -2.0394062879311141e-13 
9.6886529664749105e+01 1.4039190535186208e-02 -2.0394062879311141e-13 
9.4021875368263863e+01 1.9195034023141488e-02 -1.5989930935758585e-13 
9.4021875368263863e+01 1.9195034023141488e-02 -1.5989930935758585e-13 
9.6886529664749105e+01 1.4039190535186208e-02 -2.0394062879311141e-13 
9.4021875368263863e+01 1.9195034023141488e-02 -1.5989930935758585e-13 
1.3107220693862109e+02 1.9351462754457316e-01 1.9412104895146313e-13 
1.3107220693862109e+02 1.9351462754457316e-01 1.9412104895146313e-13 
1.3215855992416255e+02 1.8152082915185019e-01 2.0507300755168580e-13 
1.3215855992416255e+02 1.8152082915185019e-01 2.0507300755168580e-13 
1.3107220693862109e+02 1.9351462754457316e-01 1.9412104895146313e-13 
1.3215855992416255e+02 1.8152082915185019e-01 2.0507300755168580e-13 
1.0336048834690337e+02 3.6311573496277560e-02 -2.1297247960737043e-13 
1.0336048834690337e+02 3.6311573496277560e-02 -2.1297247960737043e-13 
9.9940282291972835e+01 2.5477146638877457e-02 -2.3070379320108346e-13 
9.9940282291972835e+01 2.5477146638877457e-02 -2.3070379320108346e-13 
1.0336048834690337e+02 3.6311573496277560e-02 -2.1297247960737043e-13 
9.9940282291972835e+01 2.5477146638877457e-02 -2.3070379320108346e-13 
1.2858375642239480e+02 2.2533768369976315e-01 8.9058392367194039e-14 
1.2858375642239480e+02 2.2533768369976315e-01 8.9058392367194039e-14 
1.2977115969159786e+02 2.0316505579648947e-01 1.3672477388707027e-13 
1.2977115969159786e+02 2.0316505579648947e-01 1.3672477388707027e-13 
1.2858375642239480e+02 2.2533768369976315e-01 8.9058392367194039e-14 
1.2977115969159786e+02 2.0316505579648947e-01 1.3672477388707027e-13 
1.1158677959650777e+02 7.1389971792086726e-02 -9.0827018609790082e-14 
1.1158677959650777e+02 7.1389971792086726e-02 -9.0827018609790082e-14 
1.0732505489397772e+02 3.8160349509780644e-02 -1.4695051437382439e-13 
1.0732505489397772e+02 3.8160349509780644e-02 -1.4695051437382439e-13 
1.1158677959650777e+02 7.1389971792086726e-02 -9.0827018609790082e-14 
1.0732505489397772e+02 3.8160349509780644e-02 -1.4695051437382439e-13 
1.2542456886159198e+02 2.4965628540849139e-01 1.2004723069388290e-13 
1.2542456886159198e+02 2.4965628540849139e-01 1.2004723069388290e-13 
1.2695238882859485e+02 2.2453027481242316e-01 9.6753274275480902e-14 
1.2695238882859485e+02 2.2453027481242316e-01 9.6753274275480902e-14 
1.2542456886159198e+02 2.4965628540849139e-01 1.2004723069388290e-13 
1.2695238882859485e+02 2.2453027481242316e-01 9.6753274275480902e-14 
1.2257421313363739e+02 9.8847276121887262e-02 -1.1231951765552049e-13 
1.2257421313363739e+02 9.8847276121887262e-02 -1.1231951765552049e-13 
1.1686338607218750e+02 6.1316281009567319e-02 -9.2846084675229419e-14 
1.1686338607218750e+02 6.1316281009567319e-02 -9.2846084675229419e-14 
1.2257421313363739e+02 9.8847276121887262e-02 -1.1231951765552049e-13 
1.1686338607218750e+02 6.1316281009567319e-02 -9.2846084675229419e-14 
1.2148217711016332e+02 2.7372046727941779e-01 1.1177617543213641e-13 
1.2148217711016332e+02 2.7372046727941779e-01 1.1177617543213641e-13 
1.2355024174592290e+02 2.5737722933445184e-01 1.2532049582364041e-13 
1.2355024174592290e+02 2.5737722933445184e-01 1.2532049582364041e-13 
1.2148217711016332e+02 2.7372046727941779e-01 1.1177617543213641e-13 
1.2355024174592290e+02 2.5737722933445184e-01 1.2532049582364041e-13 
1.3685988209647985e+02 1.4178230201832775e-01 -1.0018600482902701e-13 
1.3685988209647985e+02 1.4178230201832775e-01 -1.0018600482902701e-13 
1.2925041512460666e+02 1.1262648300726141e-01 -1.1458132114415357e-13 
1.2925041512460666e+02 1.1262648300726141e-01 -1.1458132114415357e-13 
1.3685988209647985e+02 1.4178230201832775e-01 -1.0018600482902701e-13 
1.2925041512460666e+02 1.1262648300726141e-01 -1.1458132114415357e-13 
1.1652615735810468e+02 2.3766143243847182e-01 5.9920685283591767e-14 
1.1652615735810468e+02 2.3766143243847182e-01 5.9920685283591767e-14 
1.1931854416328315e+02 2.9078857227796107e-01 8.9752772110997073e-14 
1.1931854416328315e+02 2.9078857227796107e-01 8.9752772110997073e-14 
1.1652615735810468e+02 2.3766143243847182e-01 5.9920685283591767e-14 
1.1931854416328315e+02 2.9078857227796107e-01 8.9752772110997073e-14 
1.5622112301424204e+02 1.5311554430172691e-01 -6.6293845381754224e-14 
1.5622112301424204e+02 1.5311554430172691e-01 -6.6293845381754224e-14 
1.4556134595064759e+02 1.8948523853759980e-01 -8.3145458085033452e-14 
1.4556134595064759e+02 1.8948523853759980e-01 -8.3145458085033452e-14 
1.5622112301424204e+02 1.5311554430172691e-01 -6.6293845381754224e-14 
1.4556134595064759e+02 1.8948523853759980e-01 -8.3145458085033452e-14 
1.1012581199493252e+02 4.5966264461094397e-01 2.3204722197850796e-14 
1.1012581199493252e+02 4.5966264461094397e-01 2.3204722197850796e-14 
1.1373065333684099e+02 3.1277295881318423e-01 3.2881159166728725e-14 
1.1373065333684099e+02 3.1277295881318423e-01 3.2881159166728725e-14 
1.1012581199493252e+02 4.5966264461094397e-01 2.3204722197850796e-14 
1.1373065333684099e+02 3.1277295881318423e-01 3.2881159166728725e-14 
1.8281366694438475e+02 4.2259943775025022e-01 -5.5005510011540440e-14 
1.8281366694438475e+02 4.2259943775025022e-01 -5.5005510011540440e-14 
1.6819113330529854e+02 2.7146253961200273e-01 -5.3873574696316769e-14 
1.6819113330529854e+02 2.7146253961200273e-01 -5.3873574696316769e-14 
1.8281366694438475e+02 4.2259943775025022e-01 -5.5005510011540440e-14 
1.6819113330529854e+02 2.7146253961200273e-01 -5.3873574696316769e-14 
1.0137181247740591e+02 -2.1779214905927802e-01 1.1159937767624421e-14 
1.0137181247740591e+02 -2.1779214905927802e-01 1.1159937767624421e-14 
1.0604927222435435e+02 5.8244836640551512e-01 2.1649652081588716e-14 
1.0604927222435435e+02 5.8244836640551512e-01 2.1649652081588716e-14 
1.0137181247740591e+02 -2.1779214905927802e-01 1.1159937767624421e-14 
1.0604927222435435e+02 5.8244836640551512e-01 2.1649652081588716e-14 
2.1776048275619996e+02 -1.2249590434657875e-01 -4.5770387804120482e-14 
2.1776048275619996e+02 -1.2249590434657875e-01 -4.5770387804120482e-14 
1.9924818730100742e+02 5.7428769072066643e-01 -5.8824238591208514e-14 
1.9924818730100742e+02 5.7428769072066643e-01 -5.8824238591208514e-14 
2.1776048275619996e+02 -1.2249590434657875e-01 -4.5770387804120482e-14 
1.9924818730100742e+02 5.7428769072066643e-01 -5.8824238591208514e-14 
8.8077640236676871e+01 4.2134544900636683e-01 -4.3023210335424937e-14 
8.8077640236676871e+01 4.2134544900636683e-01 -4.3023210335424937e-14 
9.5511155713537846e+01 -1.4701532729295650e+00 -1.3760324482049550e-14 
9.5511155713537846e+01 -1.4701532729295650e+00 -1.3760324482049550e-14 
8.8077640236676871e+01 4.2134544900636683e-01 -4.3023210335424937e-14 
9.5511155713538756e+01 -1.4701532729295650e+00 -1.3760324482049348e-14 
2.5599533454797620e+02 5.2650282010154115e-01 2.9212724312508697e-14 
2.5599533454797620e+02 5.2650282010154115e-01 2.9212724312508697e-14 
2.3788060803178996e+02 -1.2476586423822482e+00 -1.0845947975551569e-14 
2.3788060803178996e+02 -1.2476586423822482e+00 -1.0845947975551569e-14 
2.5599533454797620e+02 5.2650282010154115e-01 2.9212724312508697e-14 
2.3788060803178996e+02 -1.2476586423836125e+00 -1.0845947975551367e-14 
6.6685426253990954e+01 9.4634111332361499e+00 -1.0413336099726350e-13 
6.6685426253990954e+01 9.4634111332361499e+00 -1.0413336099726350e-13 
7.8574911909949606e+01 8.9962599205723564e+00 -7.4956972373394226e-14 
7.8574911909949606e+01 8.9962599205723564e+00 -7.4956972373394226e-14 
6.6685426253990954e+01 9.4634111332361499e+00 -1.0413336099726350e-13 
7.8574911909949606e+01 8.9962599205723564e+00 -7.4956972373394226e-14 
2.8744407511662143e+02 8.6962834543080589e+00 9.9115822938684618e-14 
2.8744407511662143e+02 8.6962834543080589e+00 9.9115822938684618e-14 
2.6866624712500516e+02 8.2372082364786365e+00 6.7098323819181934e-14 
2.6866624712500516e+02 8.2372082364786365e+00 6.7098323819181934e-14 
2.8744407511662143e+02 8.6962834543080589e+00 9.9115822938684618e-14 
2.6866624712500516e+02 8.2372082364786365e+00 6.7098323819181934e-14 
2.6520931656678385e+01 -7.0526299195533738e+01 -1.0116454167502404e-13 
2.6520931656678385e+01 -7.0526299195533738e+01 -1.0116454167502404e-13 
5.1199867452518447e+01 -3.5425270049345727e+01 -1.1272243136602010e-13 
5.1199867452518447e+01 -3.5425270049345727e+01 -1.1272243136602010e-13 
2.6520931656678385e+01 -7.0526299195533738e+01 -1.0116454167502404e-13 
5.1199867452518447e+01 -3.5425270049346636e+01 -1.1272243136601772e-13 
3.9271928377947313e+02 -6.1636449527477907e+01 9.6340006800136449e-14 
3.9271928377947313e+02 -6.1636449527477907e+01 9.6340006800136449e-14 
3.4150826906709108e+02 -3.1282644601541506e+01 1.0826786539199918e-13 
3.4150826906709108e+02 -3.1282644601541506e+01 1.0826786539199918e-13 
3.9271928377947313e+02 -6.1636449527477907e+01 9.6340006800136449e-14 
3.4150826906709119e+02 -3.1282644601542643e+01 1.0826786539199911e-13 
-2.8995728666151081e+01 3.9339460804060946e+02 -2.0174674240055254e-14 
5.5963565736012697e+00 4.8402702361277306e+02 3.0661530498891396e-15 
-2.8995728666151081e+01 3.9339460804060946e+02 -2.0174674240055254e-14 
5.5963565736012697e+00 4.8402702361277306e+02 3.0661530498891396e-15 
-1.8774718452268644e+00 5.2706689253683180e+01 -7.0233865354064629e-14 
5.5926048967148745e-01 4.6357781144400860e+02 8.0217145183541970e-17 
-1.8774718452268644e+00 5.2706689253683180e+01 -7.0233865354064629e-14 
5.5926048967148745e-01 4.6357781144400860e+02 8.0217145183541970e-17 
-2.8995728666151081e+01 3.9339460804060946e+02 -2.0174674240055254e-14 
5.5963565736012697e+00 4.8402702361277306e+02 3.0661530498891396e-15 
-1.8774718452268644e+00 5.2706689253683180e+01 -7.0233865354064629e-14 
5.5926048967148745e-01 4.6357781144400860e+02 8.0217145183541970e-17 
-1.1659104808503344e+01 4.5731004969072296e+02 -2.7636288262881733e-15 
-1.1659104808503344e+01 4.5731004969072296e+02 -2.7636288262881733e-15 
-2.3791964644431118e-01 4.7965176999922414e+02 8.0187569896274919e-17 
-2.3791964644431118e-01 4.7965176999922414e+02 8.0187569896274919e-17 
-1.1659104808503344e+01 4.5731004969072296e+02 -2.7636288262881733e-15 
-2.3791964644431118e-01 4.7965176999922414e+02 8.0187569896274919e-17 
7.4704956437047144e+01 3.4772427860152743e+02 1.9823755400929199e-14 
7.4704956437047144e+01 3.4772427860152743e+02 1.9823755400929199e-14 
3.2030982781874820e+02 4.6995845932329473e+01 6.6388467423522519e-14 
-1.8018259191304082e+00 4.1746322327427441e+02 2.2307524401704986e-16 
3.2030982781874820e+02 4.6995845932329473e+01 6.6388467423522519e-14 
-1.8018259191304082e+00 4.1746322327427441e+02 2.2307524401704986e-16 
7.4704956437047144e+01 3.4772427860152743e+02 1.9823755400929199e-14 
3.2030982781874820e+02 4.6995845932329473e+01 6.6388467423522519e-14 
-1.8018259191305788e+00 4.1746322327427447e+02 2.2307524401700174e-16 

