# vtk DataFile Version 2.0

ASCII

DATASET UNSTRUCTURED_GRID

POINTS 237 float 

-5.0000000000000003e-02  0.0000000000000000e+00  0.0000000000000000e+00
-5.0000000000000003e-02  5.5555555555555552e-02  0.0000000000000000e+00
-5.0000000000000003e-02  0.0000000000000000e+00  2.9999999999999999e-01
-5.0000000000000003e-02  5.5555555555555552e-02  2.9999999999999999e-01
-5.0000000000000003e-02  2.7777777777777776e-02  0.0000000000000000e+00
-5.0000000000000003e-02  2.7777777777777776e-02  2.9999999999999999e-01
-5.0000000000000003e-02  0.0000000000000000e+00  1.4999999999999999e-01
-5.0000000000000003e-02  5.5555555555555552e-02  1.4999999999999999e-01
-5.0000000000000003e-02  2.7777777777777776e-02  1.4999999999999999e-01
5.0000000000000003e-02  0.0000000000000000e+00  0.0000000000000000e+00
5.0000000000000003e-02  5.5555555555555552e-02  0.0000000000000000e+00
5.0000000000000003e-02  0.0000000000000000e+00  2.9999999999999999e-01
5.0000000000000003e-02  5.5555555555555552e-02  2.9999999999999999e-01
5.0000000000000003e-02  2.7777777777777776e-02  0.0000000000000000e+00
5.0000000000000003e-02  2.7777777777777776e-02  2.9999999999999999e-01
5.0000000000000003e-02  0.0000000000000000e+00  1.4999999999999999e-01
5.0000000000000003e-02  5.5555555555555552e-02  1.4999999999999999e-01
5.0000000000000003e-02  2.7777777777777776e-02  1.4999999999999999e-01
-5.0000000000000003e-02  1.1111111111111110e-01  0.0000000000000000e+00
-5.0000000000000003e-02  1.1111111111111110e-01  2.9999999999999999e-01
-5.0000000000000003e-02  8.3333333333333329e-02  0.0000000000000000e+00
-5.0000000000000003e-02  8.3333333333333329e-02  2.9999999999999999e-01
-5.0000000000000003e-02  1.1111111111111110e-01  1.4999999999999999e-01
-5.0000000000000003e-02  8.3333333333333329e-02  1.4999999999999999e-01
5.0000000000000003e-02  1.1111111111111110e-01  0.0000000000000000e+00
5.0000000000000003e-02  1.1111111111111110e-01  2.9999999999999999e-01
5.0000000000000003e-02  8.3333333333333329e-02  0.0000000000000000e+00
5.0000000000000003e-02  8.3333333333333329e-02  2.9999999999999999e-01
5.0000000000000003e-02  1.1111111111111110e-01  1.4999999999999999e-01
5.0000000000000003e-02  8.3333333333333329e-02  1.4999999999999999e-01
-5.0000000000000003e-02  1.6666666666666666e-01  0.0000000000000000e+00
-5.0000000000000003e-02  1.6666666666666666e-01  2.9999999999999999e-01
-5.0000000000000003e-02  1.3888888888888890e-01  0.0000000000000000e+00
-5.0000000000000003e-02  1.3888888888888890e-01  2.9999999999999999e-01
-5.0000000000000003e-02  1.6666666666666666e-01  1.4999999999999999e-01
-5.0000000000000003e-02  1.3888888888888890e-01  1.4999999999999999e-01
5.0000000000000003e-02  1.6666666666666666e-01  0.0000000000000000e+00
5.0000000000000003e-02  1.6666666666666666e-01  2.9999999999999999e-01
5.0000000000000003e-02  1.3888888888888890e-01  0.0000000000000000e+00
5.0000000000000003e-02  1.3888888888888890e-01  2.9999999999999999e-01
5.0000000000000003e-02  1.6666666666666666e-01  1.4999999999999999e-01
5.0000000000000003e-02  1.3888888888888890e-01  1.4999999999999999e-01
-5.0000000000000003e-02  2.2222222222222221e-01  0.0000000000000000e+00
-5.0000000000000003e-02  2.2222222222222221e-01  2.9999999999999999e-01
-5.0000000000000003e-02  1.9444444444444442e-01  0.0000000000000000e+00
-5.0000000000000003e-02  1.9444444444444442e-01  2.9999999999999999e-01
-5.0000000000000003e-02  2.2222222222222221e-01  1.4999999999999999e-01
-5.0000000000000003e-02  1.9444444444444442e-01  1.4999999999999999e-01
5.0000000000000003e-02  2.2222222222222221e-01  0.0000000000000000e+00
5.0000000000000003e-02  2.2222222222222221e-01  2.9999999999999999e-01
5.0000000000000003e-02  1.9444444444444442e-01  0.0000000000000000e+00
5.0000000000000003e-02  1.9444444444444442e-01  2.9999999999999999e-01
5.0000000000000003e-02  2.2222222222222221e-01  1.4999999999999999e-01
5.0000000000000003e-02  1.9444444444444442e-01  1.4999999999999999e-01
-5.0000000000000003e-02  2.7777777777777779e-01  0.0000000000000000e+00
-5.0000000000000003e-02  2.7777777777777779e-01  2.9999999999999999e-01
-5.0000000000000003e-02  2.5000000000000000e-01  0.0000000000000000e+00
-5.0000000000000003e-02  2.5000000000000000e-01  2.9999999999999999e-01
-5.0000000000000003e-02  2.7777777777777779e-01  1.4999999999999999e-01
-5.0000000000000003e-02  2.5000000000000000e-01  1.4999999999999999e-01
5.0000000000000003e-02  2.7777777777777779e-01  0.0000000000000000e+00
5.0000000000000003e-02  2.7777777777777779e-01  2.9999999999999999e-01
5.0000000000000003e-02  2.5000000000000000e-01  0.0000000000000000e+00
5.0000000000000003e-02  2.5000000000000000e-01  2.9999999999999999e-01
5.0000000000000003e-02  2.7777777777777779e-01  1.4999999999999999e-01
5.0000000000000003e-02  2.5000000000000000e-01  1.4999999999999999e-01
-5.0000000000000003e-02  3.3333333333333331e-01  0.0000000000000000e+00
-5.0000000000000003e-02  3.3333333333333331e-01  2.9999999999999999e-01
-5.0000000000000003e-02  3.0555555555555558e-01  0.0000000000000000e+00
-5.0000000000000003e-02  3.0555555555555558e-01  2.9999999999999999e-01
-5.0000000000000003e-02  3.3333333333333331e-01  1.4999999999999999e-01
-5.0000000000000003e-02  3.0555555555555558e-01  1.4999999999999999e-01
5.0000000000000003e-02  3.3333333333333331e-01  0.0000000000000000e+00
5.0000000000000003e-02  3.3333333333333331e-01  2.9999999999999999e-01
5.0000000000000003e-02  3.0555555555555558e-01  0.0000000000000000e+00
5.0000000000000003e-02  3.0555555555555558e-01  2.9999999999999999e-01
5.0000000000000003e-02  3.3333333333333331e-01  1.4999999999999999e-01
5.0000000000000003e-02  3.0555555555555558e-01  1.4999999999999999e-01
-5.0000000000000003e-02  3.8888888888888884e-01  0.0000000000000000e+00
-5.0000000000000003e-02  3.8888888888888884e-01  2.9999999999999999e-01
-5.0000000000000003e-02  3.6111111111111105e-01  0.0000000000000000e+00
-5.0000000000000003e-02  3.6111111111111105e-01  2.9999999999999999e-01
-5.0000000000000003e-02  3.8888888888888884e-01  1.4999999999999999e-01
-5.0000000000000003e-02  3.6111111111111105e-01  1.4999999999999999e-01
5.0000000000000003e-02  3.8888888888888884e-01  0.0000000000000000e+00
5.0000000000000003e-02  3.8888888888888884e-01  2.9999999999999999e-01
5.0000000000000003e-02  3.6111111111111105e-01  0.0000000000000000e+00
5.0000000000000003e-02  3.6111111111111105e-01  2.9999999999999999e-01
5.0000000000000003e-02  3.8888888888888884e-01  1.4999999999999999e-01
5.0000000000000003e-02  3.6111111111111105e-01  1.4999999999999999e-01
-5.0000000000000003e-02  4.4444444444444442e-01  0.0000000000000000e+00
-5.0000000000000003e-02  4.4444444444444442e-01  2.9999999999999999e-01
-5.0000000000000003e-02  4.1666666666666663e-01  0.0000000000000000e+00
-5.0000000000000003e-02  4.1666666666666663e-01  2.9999999999999999e-01
-5.0000000000000003e-02  4.4444444444444442e-01  1.4999999999999999e-01
-5.0000000000000003e-02  4.1666666666666663e-01  1.4999999999999999e-01
5.0000000000000003e-02  4.4444444444444442e-01  0.0000000000000000e+00
5.0000000000000003e-02  4.4444444444444442e-01  2.9999999999999999e-01
5.0000000000000003e-02  4.1666666666666663e-01  0.0000000000000000e+00
5.0000000000000003e-02  4.1666666666666663e-01  2.9999999999999999e-01
5.0000000000000003e-02  4.4444444444444442e-01  1.4999999999999999e-01
5.0000000000000003e-02  4.1666666666666663e-01  1.4999999999999999e-01
-5.0000000000000003e-02  5.0000000000000000e-01  0.0000000000000000e+00
-5.0000000000000003e-02  5.0000000000000000e-01  2.9999999999999999e-01
-5.0000000000000003e-02  4.7222222222222221e-01  0.0000000000000000e+00
-5.0000000000000003e-02  4.7222222222222221e-01  2.9999999999999999e-01
-5.0000000000000003e-02  5.0000000000000000e-01  1.4999999999999999e-01
-5.0000000000000003e-02  4.7222222222222221e-01  1.4999999999999999e-01
5.0000000000000003e-02  5.0000000000000000e-01  0.0000000000000000e+00
5.0000000000000003e-02  5.0000000000000000e-01  2.9999999999999999e-01
5.0000000000000003e-02  4.7222222222222221e-01  0.0000000000000000e+00
5.0000000000000003e-02  4.7222222222222221e-01  2.9999999999999999e-01
5.0000000000000003e-02  5.0000000000000000e-01  1.4999999999999999e-01
5.0000000000000003e-02  4.7222222222222221e-01  1.4999999999999999e-01
-5.0000000000000003e-02  5.5555555555555558e-01  0.0000000000000000e+00
-5.0000000000000003e-02  5.5555555555555558e-01  2.9999999999999999e-01
-5.0000000000000003e-02  5.2777777777777779e-01  0.0000000000000000e+00
-5.0000000000000003e-02  5.2777777777777779e-01  2.9999999999999999e-01
-5.0000000000000003e-02  5.5555555555555558e-01  1.4999999999999999e-01
-5.0000000000000003e-02  5.2777777777777779e-01  1.4999999999999999e-01
5.0000000000000003e-02  5.5555555555555558e-01  0.0000000000000000e+00
5.0000000000000003e-02  5.5555555555555558e-01  2.9999999999999999e-01
5.0000000000000003e-02  5.2777777777777779e-01  0.0000000000000000e+00
5.0000000000000003e-02  5.2777777777777779e-01  2.9999999999999999e-01
5.0000000000000003e-02  5.5555555555555558e-01  1.4999999999999999e-01
5.0000000000000003e-02  5.2777777777777779e-01  1.4999999999999999e-01
-5.0000000000000003e-02  6.1111111111111105e-01  0.0000000000000000e+00
-5.0000000000000003e-02  6.1111111111111105e-01  2.9999999999999999e-01
-5.0000000000000003e-02  5.8333333333333326e-01  0.0000000000000000e+00
-5.0000000000000003e-02  5.8333333333333326e-01  2.9999999999999999e-01
-5.0000000000000003e-02  6.1111111111111105e-01  1.4999999999999999e-01
-5.0000000000000003e-02  5.8333333333333326e-01  1.4999999999999999e-01
5.0000000000000003e-02  6.1111111111111105e-01  0.0000000000000000e+00
5.0000000000000003e-02  6.1111111111111105e-01  2.9999999999999999e-01
5.0000000000000003e-02  5.8333333333333326e-01  0.0000000000000000e+00
5.0000000000000003e-02  5.8333333333333326e-01  2.9999999999999999e-01
5.0000000000000003e-02  6.1111111111111105e-01  1.4999999999999999e-01
5.0000000000000003e-02  5.8333333333333326e-01  1.4999999999999999e-01
-5.0000000000000003e-02  6.6666666666666663e-01  0.0000000000000000e+00
-5.0000000000000003e-02  6.6666666666666663e-01  2.9999999999999999e-01
-5.0000000000000003e-02  6.3888888888888884e-01  0.0000000000000000e+00
-5.0000000000000003e-02  6.3888888888888884e-01  2.9999999999999999e-01
-5.0000000000000003e-02  6.6666666666666663e-01  1.4999999999999999e-01
-5.0000000000000003e-02  6.3888888888888884e-01  1.4999999999999999e-01
5.0000000000000003e-02  6.6666666666666663e-01  0.0000000000000000e+00
5.0000000000000003e-02  6.6666666666666663e-01  2.9999999999999999e-01
5.0000000000000003e-02  6.3888888888888884e-01  0.0000000000000000e+00
5.0000000000000003e-02  6.3888888888888884e-01  2.9999999999999999e-01
5.0000000000000003e-02  6.6666666666666663e-01  1.4999999999999999e-01
5.0000000000000003e-02  6.3888888888888884e-01  1.4999999999999999e-01
-5.0000000000000003e-02  7.2222222222222221e-01  0.0000000000000000e+00
-5.0000000000000003e-02  7.2222222222222221e-01  2.9999999999999999e-01
-5.0000000000000003e-02  6.9444444444444442e-01  0.0000000000000000e+00
-5.0000000000000003e-02  6.9444444444444442e-01  2.9999999999999999e-01
-5.0000000000000003e-02  7.2222222222222221e-01  1.4999999999999999e-01
-5.0000000000000003e-02  6.9444444444444442e-01  1.4999999999999999e-01
5.0000000000000003e-02  7.2222222222222221e-01  0.0000000000000000e+00
5.0000000000000003e-02  7.2222222222222221e-01  2.9999999999999999e-01
5.0000000000000003e-02  6.9444444444444442e-01  0.0000000000000000e+00
5.0000000000000003e-02  6.9444444444444442e-01  2.9999999999999999e-01
5.0000000000000003e-02  7.2222222222222221e-01  1.4999999999999999e-01
5.0000000000000003e-02  6.9444444444444442e-01  1.4999999999999999e-01
-5.0000000000000003e-02  7.7777777777777768e-01  0.0000000000000000e+00
-5.0000000000000003e-02  7.7777777777777768e-01  2.9999999999999999e-01
-5.0000000000000003e-02  7.5000000000000000e-01  0.0000000000000000e+00
-5.0000000000000003e-02  7.5000000000000000e-01  2.9999999999999999e-01
-5.0000000000000003e-02  7.7777777777777768e-01  1.4999999999999999e-01
-5.0000000000000003e-02  7.5000000000000000e-01  1.4999999999999999e-01
5.0000000000000003e-02  7.7777777777777768e-01  0.0000000000000000e+00
5.0000000000000003e-02  7.7777777777777768e-01  2.9999999999999999e-01
5.0000000000000003e-02  7.5000000000000000e-01  0.0000000000000000e+00
5.0000000000000003e-02  7.5000000000000000e-01  2.9999999999999999e-01
5.0000000000000003e-02  7.7777777777777768e-01  1.4999999999999999e-01
5.0000000000000003e-02  7.5000000000000000e-01  1.4999999999999999e-01
-5.0000000000000003e-02  8.3333333333333326e-01  0.0000000000000000e+00
-5.0000000000000003e-02  8.3333333333333326e-01  2.9999999999999999e-01
-5.0000000000000003e-02  8.0555555555555547e-01  0.0000000000000000e+00
-5.0000000000000003e-02  8.0555555555555547e-01  2.9999999999999999e-01
-5.0000000000000003e-02  8.3333333333333326e-01  1.4999999999999999e-01
-5.0000000000000003e-02  8.0555555555555536e-01  1.4999999999999999e-01
5.0000000000000003e-02  8.3333333333333326e-01  0.0000000000000000e+00
5.0000000000000003e-02  8.3333333333333326e-01  2.9999999999999999e-01
5.0000000000000003e-02  8.0555555555555547e-01  0.0000000000000000e+00
5.0000000000000003e-02  8.0555555555555547e-01  2.9999999999999999e-01
5.0000000000000003e-02  8.3333333333333326e-01  1.4999999999999999e-01
5.0000000000000003e-02  8.0555555555555536e-01  1.4999999999999999e-01
-5.0000000000000003e-02  8.8888888888888884e-01  0.0000000000000000e+00
-5.0000000000000003e-02  8.8888888888888884e-01  2.9999999999999999e-01
-5.0000000000000003e-02  8.6111111111111105e-01  0.0000000000000000e+00
-5.0000000000000003e-02  8.6111111111111105e-01  2.9999999999999999e-01
-5.0000000000000003e-02  8.8888888888888884e-01  1.4999999999999999e-01
-5.0000000000000003e-02  8.6111111111111105e-01  1.4999999999999999e-01
5.0000000000000003e-02  8.8888888888888884e-01  0.0000000000000000e+00
5.0000000000000003e-02  8.8888888888888884e-01  2.9999999999999999e-01
5.0000000000000003e-02  8.6111111111111105e-01  0.0000000000000000e+00
5.0000000000000003e-02  8.6111111111111105e-01  2.9999999999999999e-01
5.0000000000000003e-02  8.8888888888888884e-01  1.4999999999999999e-01
5.0000000000000003e-02  8.6111111111111105e-01  1.4999999999999999e-01
-5.0000000000000003e-02  9.4444444444444442e-01  0.0000000000000000e+00
-5.0000000000000003e-02  9.4444444444444442e-01  2.9999999999999999e-01
-5.0000000000000003e-02  9.1666666666666663e-01  0.0000000000000000e+00
-5.0000000000000003e-02  9.1666666666666663e-01  2.9999999999999999e-01
-5.0000000000000003e-02  9.4444444444444442e-01  1.4999999999999999e-01
-5.0000000000000003e-02  9.1666666666666674e-01  1.4999999999999999e-01
5.0000000000000003e-02  9.4444444444444442e-01  0.0000000000000000e+00
5.0000000000000003e-02  9.4444444444444442e-01  2.9999999999999999e-01
5.0000000000000003e-02  9.1666666666666663e-01  0.0000000000000000e+00
5.0000000000000003e-02  9.1666666666666663e-01  2.9999999999999999e-01
5.0000000000000003e-02  9.4444444444444442e-01  1.4999999999999999e-01
5.0000000000000003e-02  9.1666666666666674e-01  1.4999999999999999e-01
-5.0000000000000003e-02  1.0000000000000000e+00  0.0000000000000000e+00
-1.6666666666666670e-02  1.0000000000000000e+00  0.0000000000000000e+00
-5.0000000000000003e-02  1.0000000000000000e+00  2.9999999999999999e-01
-1.6666666666666670e-02  1.0000000000000000e+00  2.9999999999999999e-01
-5.0000000000000003e-02  9.7222222222222221e-01  0.0000000000000000e+00
-3.3333333333333340e-02  1.0000000000000000e+00  0.0000000000000000e+00
-5.0000000000000003e-02  9.7222222222222221e-01  2.9999999999999999e-01
-3.3333333333333340e-02  1.0000000000000000e+00  2.9999999999999999e-01
-5.0000000000000003e-02  1.0000000000000000e+00  1.4999999999999999e-01
-1.6666666666666670e-02  1.0000000000000000e+00  1.4999999999999999e-01
-5.0000000000000003e-02  9.7222222222222221e-01  1.4999999999999999e-01
-3.3333333333333340e-02  1.0000000000000000e+00  1.4999999999999999e-01
1.6666666666666663e-02  1.0000000000000000e+00  0.0000000000000000e+00
1.6666666666666663e-02  1.0000000000000000e+00  2.9999999999999999e-01
-3.4694469519536142e-18  1.0000000000000000e+00  0.0000000000000000e+00
-3.4694469519536142e-18  1.0000000000000000e+00  2.9999999999999999e-01
1.6666666666666663e-02  1.0000000000000000e+00  1.4999999999999999e-01
-3.4694469519536142e-18  1.0000000000000000e+00  1.4999999999999999e-01
5.0000000000000003e-02  1.0000000000000000e+00  0.0000000000000000e+00
5.0000000000000003e-02  1.0000000000000000e+00  2.9999999999999999e-01
5.0000000000000003e-02  9.7222222222222221e-01  0.0000000000000000e+00
3.3333333333333333e-02  1.0000000000000000e+00  0.0000000000000000e+00
5.0000000000000003e-02  9.7222222222222221e-01  2.9999999999999999e-01
3.3333333333333333e-02  1.0000000000000000e+00  2.9999999999999999e-01
5.0000000000000003e-02  1.0000000000000000e+00  1.4999999999999999e-01
5.0000000000000003e-02  9.7222222222222221e-01  1.4999999999999999e-01
3.3333333333333333e-02  1.0000000000000000e+00  1.4999999999999999e-01

CELLS 0 0


CELL_TYPES 0


POINT_DATA 237

VECTORS VertexNormals float

0.0000000000000000e+00 0.0000000000000000e+00 0.0000000000000000e+00 
0.0000000000000000e+00 0.0000000000000000e+00 0.0000000000000000e+00 
0.0000000000000000e+00 0.0000000000000000e+00 0.0000000000000000e+00 
0.0000000000000000e+00 0.0000000000000000e+00 0.0000000000000000e+00 
0.0000000000000000e+00 0.0000000000000000e+00 0.0000000000000000e+00 
0.0000000000000000e+00 0.0000000000000000e+00 0.0000000000000000e+00 
0.0000000000000000e+00 0.0000000000000000e+00 0.0000000000000000e+00 
0.0000000000000000e+00 0.0000000000000000e+00 0.0000000000000000e+00 
0.0000000000000000e+00 0.0000000000000000e+00 0.0000000000000000e+00 
0.0000000000000000e+00 0.0000000000000000e+00 0.0000000000000000e+00 
0.0000000000000000e+00 0.0000000000000000e+00 0.0000000000000000e+00 
0.0000000000000000e+00 0.0000000000000000e+00 0.0000000000000000e+00 
0.0000000000000000e+00 0.0000000000000000e+00 0.0000000000000000e+00 
0.0000000000000000e+00 0.0000000000000000e+00 0.0000000000000000e+00 
0.0000000000000000e+00 0.0000000000000000e+00 0.0000000000000000e+00 
0.0000000000000000e+00 0.0000000000000000e+00 0.0000000000000000e+00 
0.0000000000000000e+00 0.0000000000000000e+00 0.0000000000000000e+00 
0.0000000000000000e+00 0.0000000000000000e+00 0.0000000000000000e+00 
0.0000000000000000e+00 0.0000000000000000e+00 0.0000000000000000e+00 
0.0000000000000000e+00 0.0000000000000000e+00 0.0000000000000000e+00 
0.0000000000000000e+00 0.0000000000000000e+00 0.0000000000000000e+00 
0.0000000000000000e+00 0.0000000000000000e+00 0.0000000000000000e+00 
0.0000000000000000e+00 0.0000000000000000e+00 0.0000000000000000e+00 
0.0000000000000000e+00 0.0000000000000000e+00 0.0000000000000000e+00 
0.0000000000000000e+00 0.0000000000000000e+00 0.0000000000000000e+00 
0.0000000000000000e+00 0.0000000000000000e+00 0.0000000000000000e+00 
0.0000000000000000e+00 0.0000000000000000e+00 0.0000000000000000e+00 
0.0000000000000000e+00 0.0000000000000000e+00 0.0000000000000000e+00 
0.0000000000000000e+00 0.0000000000000000e+00 0.0000000000000000e+00 
0.0000000000000000e+00 0.0000000000000000e+00 0.0000000000000000e+00 
0.0000000000000000e+00 0.0000000000000000e+00 0.0000000000000000e+00 
0.0000000000000000e+00 0.0000000000000000e+00 0.0000000000000000e+00 
0.0000000000000000e+00 0.0000000000000000e+00 0.0000000000000000e+00 
0.0000000000000000e+00 0.0000000000000000e+00 0.0000000000000000e+00 
0.0000000000000000e+00 0.0000000000000000e+00 0.0000000000000000e+00 
0.0000000000000000e+00 0.0000000000000000e+00 0.0000000000000000e+00 
0.0000000000000000e+00 0.0000000000000000e+00 0.0000000000000000e+00 
0.0000000000000000e+00 0.0000000000000000e+00 0.0000000000000000e+00 
0.0000000000000000e+00 0.0000000000000000e+00 0.0000000000000000e+00 
0.0000000000000000e+00 0.0000000000000000e+00 0.0000000000000000e+00 
0.0000000000000000e+00 0.0000000000000000e+00 0.0000000000000000e+00 
0.0000000000000000e+00 0.0000000000000000e+00 0.0000000000000000e+00 
0.0000000000000000e+00 0.0000000000000000e+00 0.0000000000000000e+00 
0.0000000000000000e+00 0.0000000000000000e+00 0.0000000000000000e+00 
0.0000000000000000e+00 0.0000000000000000e+00 0.0000000000000000e+00 
0.0000000000000000e+00 0.0000000000000000e+00 0.0000000000000000e+00 
0.0000000000000000e+00 0.0000000000000000e+00 0.0000000000000000e+00 
0.0000000000000000e+00 0.0000000000000000e+00 0.0000000000000000e+00 
0.0000000000000000e+00 0.0000000000000000e+00 0.0000000000000000e+00 
0.0000000000000000e+00 0.0000000000000000e+00 0.0000000000000000e+00 
0.0000000000000000e+00 0.0000000000000000e+00 0.0000000000000000e+00 
0.0000000000000000e+00 0.0000000000000000e+00 0.0000000000000000e+00 
0.0000000000000000e+00 0.0000000000000000e+00 0.0000000000000000e+00 
0.0000000000000000e+00 0.0000000000000000e+00 0.0000000000000000e+00 
0.0000000000000000e+00 0.0000000000000000e+00 0.0000000000000000e+00 
0.0000000000000000e+00 0.0000000000000000e+00 0.0000000000000000e+00 
0.0000000000000000e+00 0.0000000000000000e+00 0.0000000000000000e+00 
0.0000000000000000e+00 0.0000000000000000e+00 0.0000000000000000e+00 
0.0000000000000000e+00 0.0000000000000000e+00 0.0000000000000000e+00 
0.0000000000000000e+00 0.0000000000000000e+00 0.0000000000000000e+00 
0.0000000000000000e+00 0.0000000000000000e+00 0.0000000000000000e+00 
0.0000000000000000e+00 0.0000000000000000e+00 0.0000000000000000e+00 
0.0000000000000000e+00 0.0000000000000000e+00 0.0000000000000000e+00 
0.0000000000000000e+00 0.0000000000000000e+00 0.0000000000000000e+00 
0.0000000000000000e+00 0.0000000000000000e+00 0.0000000000000000e+00 
0.0000000000000000e+00 0.0000000000000000e+00 0.0000000000000000e+00 
0.0000000000000000e+00 0.0000000000000000e+00 0.0000000000000000e+00 
0.0000000000000000e+00 0.0000000000000000e+00 0.0000000000000000e+00 
0.0000000000000000e+00 0.0000000000000000e+00 0.0000000000000000e+00 
0.0000000000000000e+00 0.0000000000000000e+00 0.0000000000000000e+00 
0.0000000000000000e+00 0.0000000000000000e+00 0.0000000000000000e+00 
0.0000000000000000e+00 0.0000000000000000e+00 0.0000000000000000e+00 
0.0000000000000000e+00 0.0000000000000000e+00 0.0000000000000000e+00 
0.0000000000000000e+00 0.0000000000000000e+00 0.0000000000000000e+00 
0.0000000000000000e+00 0.0000000000000000e+00 0.0000000000000000e+00 
0.0000000000000000e+00 0.0000000000000000e+00 0.0000000000000000e+00 
0.0000000000000000e+00 0.0000000000000000e+00 0.0000000000000000e+00 
0.0000000000000000e+00 0.0000000000000000e+00 0.0000000000000000e+00 
0.0000000000000000e+00 0.0000000000000000e+00 0.0000000000000000e+00 
0.0000000000000000e+00 0.0000000000000000e+00 0.0000000000000000e+00 
0.0000000000000000e+00 0.0000000000000000e+00 0.0000000000000000e+00 
0.0000000000000000e+00 0.0000000000000000e+00 0.0000000000000000e+00 
0.0000000000000000e+00 0.0000000000000000e+00 0.0000000000000000e+00 
0.0000000000000000e+00 0.0000000000000000e+00 0.0000000000000000e+00 
0.0000000000000000e+00 0.0000000000000000e+00 0.0000000000000000e+00 
0.0000000000000000e+00 0.0000000000000000e+00 0.0000000000000000e+00 
0.0000000000000000e+00 0.0000000000000000e+00 0.0000000000000000e+00 
0.0000000000000000e+00 0.0000000000000000e+00 0.0000000000000000e+00 
0.0000000000000000e+00 0.0000000000000000e+00 0.0000000000000000e+00 
0.0000000000000000e+00 0.0000000000000000e+00 0.0000000000000000e+00 
0.0000000000000000e+00 0.0000000000000000e+00 0.0000000000000000e+00 
0.0000000000000000e+00 0.0000000000000000e+00 0.0000000000000000e+00 
0.0000000000000000e+00 0.0000000000000000e+00 0.0000000000000000e+00 
0.0000000000000000e+00 0.0000000000000000e+00 0.0000000000000000e+00 
0.0000000000000000e+00 0.0000000000000000e+00 0.0000000000000000e+00 
0.0000000000000000e+00 0.0000000000000000e+00 0.0000000000000000e+00 
0.0000000000000000e+00 0.0000000000000000e+00 0.0000000000000000e+00 
0.0000000000000000e+00 0.0000000000000000e+00 0.0000000000000000e+00 
0.0000000000000000e+00 0.0000000000000000e+00 0.0000000000000000e+00 
0.0000000000000000e+00 0.0000000000000000e+00 0.0000000000000000e+00 
0.0000000000000000e+00 0.0000000000000000e+00 0.0000000000000000e+00 
0.0000000000000000e+00 0.0000000000000000e+00 0.0000000000000000e+00 
0.0000000000000000e+00 0.0000000000000000e+00 0.0000000000000000e+00 
0.0000000000000000e+00 0.0000000000000000e+00 0.0000000000000000e+00 
0.0000000000000000e+00 0.0000000000000000e+00 0.0000000000000000e+00 
0.0000000000000000e+00 0.0000000000000000e+00 0.0000000000000000e+00 
0.0000000000000000e+00 0.0000000000000000e+00 0.0000000000000000e+00 
0.0000000000000000e+00 0.0000000000000000e+00 0.0000000000000000e+00 
0.0000000000000000e+00 0.0000000000000000e+00 0.0000000000000000e+00 
0.0000000000000000e+00 0.0000000000000000e+00 0.0000000000000000e+00 
0.0000000000000000e+00 0.0000000000000000e+00 0.0000000000000000e+00 
0.0000000000000000e+00 0.0000000000000000e+00 0.0000000000000000e+00 
0.0000000000000000e+00 0.0000000000000000e+00 0.0000000000000000e+00 
0.0000000000000000e+00 0.0000000000000000e+00 0.0000000000000000e+00 
0.0000000000000000e+00 0.0000000000000000e+00 0.0000000000000000e+00 
0.0000000000000000e+00 0.0000000000000000e+00 0.0000000000000000e+00 
0.0000000000000000e+00 0.0000000000000000e+00 0.0000000000000000e+00 
0.0000000000000000e+00 0.0000000000000000e+00 0.0000000000000000e+00 
0.0000000000000000e+00 0.0000000000000000e+00 0.0000000000000000e+00 
0.0000000000000000e+00 0.0000000000000000e+00 0.0000000000000000e+00 
0.0000000000000000e+00 0.0000000000000000e+00 0.0000000000000000e+00 
0.0000000000000000e+00 0.0000000000000000e+00 0.0000000000000000e+00 
0.0000000000000000e+00 0.0000000000000000e+00 0.0000000000000000e+00 
0.0000000000000000e+00 0.0000000000000000e+00 0.0000000000000000e+00 
0.0000000000000000e+00 0.0000000000000000e+00 0.0000000000000000e+00 
0.0000000000000000e+00 0.0000000000000000e+00 0.0000000000000000e+00 
0.0000000000000000e+00 0.0000000000000000e+00 0.0000000000000000e+00 
0.0000000000000000e+00 0.0000000000000000e+00 0.0000000000000000e+00 
0.0000000000000000e+00 0.0000000000000000e+00 0.0000000000000000e+00 
0.0000000000000000e+00 0.0000000000000000e+00 0.0000000000000000e+00 
0.0000000000000000e+00 0.0000000000000000e+00 0.0000000000000000e+00 
0.0000000000000000e+00 0.0000000000000000e+00 0.0000000000000000e+00 
0.0000000000000000e+00 0.0000000000000000e+00 0.0000000000000000e+00 
0.0000000000000000e+00 0.0000000000000000e+00 0.0000000000000000e+00 
0.0000000000000000e+00 0.0000000000000000e+00 0.0000000000000000e+00 
0.0000000000000000e+00 0.0000000000000000e+00 0.0000000000000000e+00 
0.0000000000000000e+00 0.0000000000000000e+00 0.0000000000000000e+00 
0.0000000000000000e+00 0.0000000000000000e+00 0.0000000000000000e+00 
0.0000000000000000e+00 0.0000000000000000e+00 0.0000000000000000e+00 
0.0000000000000000e+00 0.0000000000000000e+00 0.0000000000000000e+00 
0.0000000000000000e+00 0.0000000000000000e+00 0.0000000000000000e+00 
0.0000000000000000e+00 0.0000000000000000e+00 0.0000000000000000e+00 
0.0000000000000000e+00 0.0000000000000000e+00 0.0000000000000000e+00 
0.0000000000000000e+00 0.0000000000000000e+00 0.0000000000000000e+00 
0.0000000000000000e+00 0.0000000000000000e+00 0.0000000000000000e+00 
0.0000000000000000e+00 0.0000000000000000e+00 0.0000000000000000e+00 
0.0000000000000000e+00 0.0000000000000000e+00 0.0000000000000000e+00 
0.0000000000000000e+00 0.0000000000000000e+00 0.0000000000000000e+00 
0.0000000000000000e+00 0.0000000000000000e+00 0.0000000000000000e+00 
0.0000000000000000e+00 0.0000000000000000e+00 0.0000000000000000e+00 
0.0000000000000000e+00 0.0000000000000000e+00 0.0000000000000000e+00 
0.0000000000000000e+00 0.0000000000000000e+00 0.0000000000000000e+00 
0.0000000000000000e+00 0.0000000000000000e+00 0.0000000000000000e+00 
0.0000000000000000e+00 0.0000000000000000e+00 0.0000000000000000e+00 
0.0000000000000000e+00 0.0000000000000000e+00 0.0000000000000000e+00 
0.0000000000000000e+00 0.0000000000000000e+00 0.0000000000000000e+00 
0.0000000000000000e+00 0.0000000000000000e+00 0.0000000000000000e+00 
0.0000000000000000e+00 0.0000000000000000e+00 0.0000000000000000e+00 
0.0000000000000000e+00 0.0000000000000000e+00 0.0000000000000000e+00 
0.0000000000000000e+00 0.0000000000000000e+00 0.0000000000000000e+00 
0.0000000000000000e+00 0.0000000000000000e+00 0.0000000000000000e+00 
0.0000000000000000e+00 0.0000000000000000e+00 0.0000000000000000e+00 
0.0000000000000000e+00 0.0000000000000000e+00 0.0000000000000000e+00 
0.0000000000000000e+00 0.0000000000000000e+00 0.0000000000000000e+00 
0.0000000000000000e+00 0.0000000000000000e+00 0.0000000000000000e+00 
0.0000000000000000e+00 0.0000000000000000e+00 0.0000000000000000e+00 
0.0000000000000000e+00 0.0000000000000000e+00 0.0000000000000000e+00 
0.0000000000000000e+00 0.0000000000000000e+00 0.0000000000000000e+00 
0.0000000000000000e+00 0.0000000000000000e+00 0.0000000000000000e+00 
0.0000000000000000e+00 0.0000000000000000e+00 0.0000000000000000e+00 
0.0000000000000000e+00 0.0000000000000000e+00 0.0000000000000000e+00 
0.0000000000000000e+00 0.0000000000000000e+00 0.0000000000000000e+00 
0.0000000000000000e+00 0.0000000000000000e+00 0.0000000000000000e+00 
0.0000000000000000e+00 0.0000000000000000e+00 0.0000000000000000e+00 
0.0000000000000000e+00 0.0000000000000000e+00 0.0000000000000000e+00 
0.0000000000000000e+00 0.0000000000000000e+00 0.0000000000000000e+00 
0.0000000000000000e+00 0.0000000000000000e+00 0.0000000000000000e+00 
0.0000000000000000e+00 0.0000000000000000e+00 0.0000000000000000e+00 
0.0000000000000000e+00 0.0000000000000000e+00 0.0000000000000000e+00 
0.0000000000000000e+00 0.0000000000000000e+00 0.0000000000000000e+00 
0.0000000000000000e+00 0.0000000000000000e+00 0.0000000000000000e+00 
0.0000000000000000e+00 0.0000000000000000e+00 0.0000000000000000e+00 
0.0000000000000000e+00 0.0000000000000000e+00 0.0000000000000000e+00 
0.0000000000000000e+00 0.0000000000000000e+00 0.0000000000000000e+00 
0.0000000000000000e+00 0.0000000000000000e+00 0.0000000000000000e+00 
0.0000000000000000e+00 0.0000000000000000e+00 0.0000000000000000e+00 
0.0000000000000000e+00 0.0000000000000000e+00 0.0000000000000000e+00 
0.0000000000000000e+00 0.0000000000000000e+00 0.0000000000000000e+00 
0.0000000000000000e+00 0.0000000000000000e+00 0.0000000000000000e+00 
0.0000000000000000e+00 0.0000000000000000e+00 0.0000000000000000e+00 
0.0000000000000000e+00 0.0000000000000000e+00 0.0000000000000000e+00 
0.0000000000000000e+00 0.0000000000000000e+00 0.0000000000000000e+00 
0.0000000000000000e+00 0.0000000000000000e+00 0.0000000000000000e+00 
0.0000000000000000e+00 0.0000000000000000e+00 0.0000000000000000e+00 
0.0000000000000000e+00 0.0000000000000000e+00 0.0000000000000000e+00 
0.0000000000000000e+00 0.0000000000000000e+00 0.0000000000000000e+00 
0.0000000000000000e+00 0.0000000000000000e+00 0.0000000000000000e+00 
0.0000000000000000e+00 0.0000000000000000e+00 0.0000000000000000e+00 
0.0000000000000000e+00 0.0000000000000000e+00 0.0000000000000000e+00 
0.0000000000000000e+00 0.0000000000000000e+00 0.0000000000000000e+00 
0.0000000000000000e+00 0.0000000000000000e+00 0.0000000000000000e+00 
0.0000000000000000e+00 0.0000000000000000e+00 0.0000000000000000e+00 
0.0000000000000000e+00 0.0000000000000000e+00 0.0000000000000000e+00 
0.0000000000000000e+00 0.0000000000000000e+00 0.0000000000000000e+00 
0.0000000000000000e+00 0.0000000000000000e+00 0.0000000000000000e+00 
0.0000000000000000e+00 0.0000000000000000e+00 0.0000000000000000e+00 
0.0000000000000000e+00 0.0000000000000000e+00 0.0000000000000000e+00 
0.0000000000000000e+00 0.0000000000000000e+00 0.0000000000000000e+00 
0.0000000000000000e+00 0.0000000000000000e+00 0.0000000000000000e+00 
0.0000000000000000e+00 0.0000000000000000e+00 0.0000000000000000e+00 
0.0000000000000000e+00 0.0000000000000000e+00 0.0000000000000000e+00 
0.0000000000000000e+00 0.0000000000000000e+00 0.0000000000000000e+00 
0.0000000000000000e+00 0.0000000000000000e+00 0.0000000000000000e+00 
0.0000000000000000e+00 0.0000000000000000e+00 0.0000000000000000e+00 
0.0000000000000000e+00 0.0000000000000000e+00 0.0000000000000000e+00 
0.0000000000000000e+00 0.0000000000000000e+00 0.0000000000000000e+00 
0.0000000000000000e+00 0.0000000000000000e+00 0.0000000000000000e+00 
0.0000000000000000e+00 0.0000000000000000e+00 0.0000000000000000e+00 
0.0000000000000000e+00 0.0000000000000000e+00 0.0000000000000000e+00 
0.0000000000000000e+00 0.0000000000000000e+00 0.0000000000000000e+00 
0.0000000000000000e+00 0.0000000000000000e+00 0.0000000000000000e+00 
0.0000000000000000e+00 0.0000000000000000e+00 0.0000000000000000e+00 
0.0000000000000000e+00 0.0000000000000000e+00 0.0000000000000000e+00 
0.0000000000000000e+00 0.0000000000000000e+00 0.0000000000000000e+00 
0.0000000000000000e+00 0.0000000000000000e+00 0.0000000000000000e+00 
0.0000000000000000e+00 0.0000000000000000e+00 0.0000000000000000e+00 
0.0000000000000000e+00 0.0000000000000000e+00 0.0000000000000000e+00 
0.0000000000000000e+00 0.0000000000000000e+00 0.0000000000000000e+00 
0.0000000000000000e+00 0.0000000000000000e+00 0.0000000000000000e+00 
0.0000000000000000e+00 0.0000000000000000e+00 0.0000000000000000e+00 
0.0000000000000000e+00 0.0000000000000000e+00 0.0000000000000000e+00 
0.0000000000000000e+00 0.0000000000000000e+00 0.0000000000000000e+00 
0.0000000000000000e+00 0.0000000000000000e+00 0.0000000000000000e+00 
0.0000000000000000e+00 0.0000000000000000e+00 0.0000000000000000e+00 
0.0000000000000000e+00 0.0000000000000000e+00 0.0000000000000000e+00 
0.0000000000000000e+00 0.0000000000000000e+00 0.0000000000000000e+00 
0.0000000000000000e+00 0.0000000000000000e+00 0.0000000000000000e+00 

VECTORS Displacement float
0.0000000000000000e+00 0.0000000000000000e+00 0.0000000000000000e+00 
2.3373520201380579e-03 2.8671485800486592e-03 0.0000000000000000e+00 
0.0000000000000000e+00 0.0000000000000000e+00 0.0000000000000000e+00 
2.3373430653473677e-03 2.8671530470762798e-03 0.0000000000000000e+00 
1.0664106432174180e-03 1.5177433416574773e-03 0.0000000000000000e+00 
1.0663962795249685e-03 1.5177360348803872e-03 0.0000000000000000e+00 
0.0000000000000000e+00 0.0000000000000000e+00 0.0000000000000000e+00 
2.3373409061651328e-03 2.8671556823553668e-03 3.4404401365923533e-10 
1.0663969409962224e-03 1.5177483110261521e-03 1.4570323242267313e-09 
0.0000000000000000e+00 0.0000000000000000e+00 0.0000000000000000e+00 
2.2865621857827327e-03 -2.7699161972866209e-03 0.0000000000000000e+00 
0.0000000000000000e+00 0.0000000000000000e+00 0.0000000000000000e+00 
2.2865377984362528e-03 -2.7699108263375800e-03 0.0000000000000000e+00 
9.6871994182042302e-04 -1.4474359374858253e-03 0.0000000000000000e+00 
9.6870278100853779e-04 -1.4474242989592290e-03 0.0000000000000000e+00 
0.0000000000000000e+00 0.0000000000000000e+00 0.0000000000000000e+00 
2.2865558753683169e-03 -2.7699212519439968e-03 2.3040337360070400e-09 
9.6871040806565875e-04 -1.4474337850642607e-03 1.1338788659156338e-09 
7.0369839463309842e-03 5.4553225478452625e-03 0.0000000000000000e+00 
7.0369703975704349e-03 5.4553496322685621e-03 0.0000000000000000e+00 
4.3588967082868659e-03 4.1962933949333085e-03 0.0000000000000000e+00 
4.3588738211505842e-03 4.1963034277813817e-03 0.0000000000000000e+00 
7.0369736158725927e-03 5.4553369058536532e-03 -2.0844142529438803e-09 
4.3588847017533060e-03 4.1963038530215538e-03 -1.8061228021786416e-10 
6.9947678085718040e-03 -5.2087863100502407e-03 0.0000000000000000e+00 
6.9947482823663216e-03 -5.2087990438394651e-03 0.0000000000000000e+00 
4.3437462659320566e-03 -4.0283222229678646e-03 0.0000000000000000e+00 
4.3437259990835655e-03 -4.0283186920602662e-03 0.0000000000000000e+00 
6.9947530832835010e-03 -5.2087972754042873e-03 -6.9767711470156201e-10 
4.3437342659659144e-03 -4.0283264875070101e-03 2.9603811506590045e-09 
1.4250664715548448e-02 7.8936687950640107e-03 0.0000000000000000e+00 
1.4250695340400186e-02 7.8936960541905535e-03 0.0000000000000000e+00 
1.0318381897937275e-02 6.6693998316078133e-03 0.0000000000000000e+00 
1.0318370318863179e-02 6.6694308942050482e-03 0.0000000000000000e+00 
1.4250683342484784e-02 7.8936748125725542e-03 -1.7011610537272987e-09 
1.0318380804560601e-02 6.6694129707259974e-03 -3.0264317128656587e-10 
1.4198536595058205e-02 -7.5002754923972677e-03 0.0000000000000000e+00 
1.4198534724193516e-02 -7.5002900764703558e-03 0.0000000000000000e+00 
1.0256834595855090e-02 -6.3589821296396246e-03 0.0000000000000000e+00 
1.0256828735163575e-02 -6.3589931288073418e-03 0.0000000000000000e+00 
1.4198542979266891e-02 -7.5002868591742206e-03 2.2425627723975734e-09 
1.0256830532354478e-02 -6.3589882550654543e-03 -1.6362058022965160e-10 
2.4191623765098459e-02 1.0328087230416706e-02 0.0000000000000000e+00 
2.4191646558868862e-02 1.0328094611856213e-02 0.0000000000000000e+00 
1.8872317920812814e-02 9.1273982580530807e-03 0.0000000000000000e+00 
1.8872344460819097e-02 9.1274103764655695e-03 0.0000000000000000e+00 
2.4191621336553636e-02 1.0328080082612196e-02 1.2295475955918623e-09 
1.8872327686974215e-02 9.1273960305087894e-03 -1.4125765122259865e-09 
2.4195109499144902e-02 -9.7541869696163488e-03 0.0000000000000000e+00 
2.4195115667614828e-02 -9.7542085459221828e-03 0.0000000000000000e+00 
1.8854242220090342e-02 -8.6368722678802287e-03 0.0000000000000000e+00 
1.8854251686775732e-02 -8.6368871457797453e-03 0.0000000000000000e+00 
2.4195116766821012e-02 -9.7541973716466640e-03 -1.0274597683090084e-11 
1.8854249093037175e-02 -8.6368765152823497e-03 2.2398956942835818e-09 
3.6740651391399773e-02 1.2355218891149860e-02 0.0000000000000000e+00 
3.6740684305650757e-02 1.2355234421362635e-02 0.0000000000000000e+00 
3.0185828056045159e-02 1.1406195907969000e-02 0.0000000000000000e+00 
3.0185831559648164e-02 1.1406208318272108e-02 0.0000000000000000e+00 
3.6740662881460849e-02 1.2355225529003387e-02 6.3092679119683264e-09 
3.0185820919703656e-02 1.1406205937556670e-02 2.7488118455483008e-09 
3.6726400119783481e-02 -1.1751145544088126e-02 0.0000000000000000e+00 
3.6726414970679806e-02 -1.1751166364629417e-02 0.0000000000000000e+00 
3.0182504497599516e-02 -1.0785985004764315e-02 0.0000000000000000e+00 
3.0182514309973395e-02 -1.0786001498757813e-02 0.0000000000000000e+00 
3.6726411570530068e-02 -1.1751164794590426e-02 -5.7104933523018315e-09 
3.0182504386884065e-02 -1.0785997323857471e-02 -2.8670916447416323e-09 
5.1223410825477510e-02 1.4152636507636774e-02 0.0000000000000000e+00 
5.1223429708204149e-02 1.4152628816487538e-02 0.0000000000000000e+00 
4.3727545071346338e-02 1.3242116395426239e-02 0.0000000000000000e+00 
4.3727566163819079e-02 1.3242112069785140e-02 0.0000000000000000e+00 
5.1223408554559827e-02 1.4152629639881993e-02 8.8864451539876241e-09 
4.3727551147080344e-02 1.3242112645153060e-02 9.5454101482040979e-09 
5.1293269419738372e-02 -1.3591193634548509e-02 0.0000000000000000e+00 
5.1293275779048048e-02 -1.3591192252654205e-02 0.0000000000000000e+00 
4.3738000652766763e-02 -1.2678120404040073e-02 0.0000000000000000e+00 
4.3738022038747895e-02 -1.2678125032313099e-02 0.0000000000000000e+00 
5.1293282780653260e-02 -1.3591201610224223e-02 -4.1669110878148429e-09 
4.3738013131288750e-02 -1.2678129799490647e-02 -7.8892975121499011e-09 
6.7645953549977073e-02 1.5946538391879199e-02 0.0000000000000000e+00 
6.7645956857911388e-02 1.5946544579131285e-02 0.0000000000000000e+00 
5.9222072854295621e-02 1.5051121583189421e-02 0.0000000000000000e+00 
5.9222065485481104e-02 1.5051120245308806e-02 0.0000000000000000e+00 
6.7645961472919069e-02 1.5946547208265369e-02 9.6158440289226693e-09 
5.9222052653888205e-02 1.5051124650145319e-02 7.5197654584480843e-09 
6.7750405554966725e-02 -1.5260327458272837e-02 0.0000000000000000e+00 
6.7750381028911663e-02 -1.5260325081718904e-02 0.0000000000000000e+00 
5.9320812088377722e-02 -1.4439657399462184e-02 0.0000000000000000e+00 
5.9320793532945809e-02 -1.4439651544986434e-02 0.0000000000000000e+00 
6.7750412401554855e-02 -1.5260334053500323e-02 -2.0308341528405343e-09 
5.9320809976439917e-02 -1.4439657199314873e-02 -3.8158087223962620e-09 
8.6021209845439331e-02 1.7759280637628400e-02 0.0000000000000000e+00 
8.6021215902353787e-02 1.7759292990229596e-02 0.0000000000000000e+00 
7.6592570612714822e-02 1.6859348082086854e-02 0.0000000000000000e+00 
7.6592575926298492e-02 1.6859355174890987e-02 0.0000000000000000e+00 
8.6021205331503786e-02 1.7759285221321915e-02 7.4190875845825982e-09 
7.6592573556158991e-02 1.6859352697710588e-02 8.4578256537555540e-09 
8.6081236065215505e-02 -1.6981522645594622e-02 0.0000000000000000e+00 
8.6081226373500436e-02 -1.6981535263494132e-02 0.0000000000000000e+00 
7.6674912212401969e-02 -1.6112009450739970e-02 0.0000000000000000e+00 
7.6674891359311312e-02 -1.6112009790905078e-02 0.0000000000000000e+00 
8.6081237910593439e-02 -1.6981534793091516e-02 3.3054315469128154e-09 
7.6674907826474278e-02 -1.6112011397737817e-02 1.8913599102938487e-10 
1.0637817535843880e-01 1.9511541238760071e-02 0.0000000000000000e+00 
1.0637820945691973e-01 1.9511556068554557e-02 0.0000000000000000e+00 
9.5937196276188935e-02 1.8645383597431574e-02 0.0000000000000000e+00 
9.5937199561702491e-02 1.8645395589073400e-02 0.0000000000000000e+00 
1.0637818168302987e-01 1.9511546214065971e-02 5.6418447349455828e-09 
9.5937184643755738e-02 1.8645391024330674e-02 5.8830707910857788e-09 
1.0639271943547471e-01 -1.8739736606553113e-02 0.0000000000000000e+00 
1.0639273385944177e-01 -1.8739749054368114e-02 0.0000000000000000e+00 
9.5983734954390998e-02 -1.7859918911641820e-02 0.0000000000000000e+00 
9.5983739860003109e-02 -1.7859927950163213e-02 0.0000000000000000e+00 
1.0639272150640135e-01 -1.8739740705198932e-02 4.2326978004133275e-09 
9.5983739204016205e-02 -1.7859918824667462e-02 3.3895666826299054e-09 
1.2869052845605622e-01 2.1272244717874075e-02 0.0000000000000000e+00 
1.2869056072626756e-01 2.1272237920563541e-02 0.0000000000000000e+00 
1.1727953521028781e-01 2.0384729478913097e-02 0.0000000000000000e+00 
1.1727956935973449e-01 2.0384731155723583e-02 0.0000000000000000e+00 
1.2869053946397288e-01 2.1272234222966944e-02 7.4174017764328528e-09 
1.1727954892093237e-01 2.0384724256800407e-02 5.3530152716270531e-09 
1.2875212846545422e-01 -2.0522065646595943e-02 0.0000000000000000e+00 
1.2875213301171015e-01 -2.0522060815712048e-02 0.0000000000000000e+00 
1.1729727081239913e-01 -1.9634515830781178e-02 0.0000000000000000e+00 
1.1729728362787949e-01 -1.9634519768333875e-02 0.0000000000000000e+00 
1.2875213549629314e-01 -2.0522076832099743e-02 4.5303232281955153e-09 
1.1729726920863578e-01 -1.9634519990018841e-02 3.9767014732471457e-09 
1.5308420273941273e-01 2.2920448460984240e-02 0.0000000000000000e+00 
1.5308420745125606e-01 2.2920458466289199e-02 0.0000000000000000e+00 
1.4065331380118029e-01 2.2125578227067771e-02 0.0000000000000000e+00 
1.4065331377882950e-01 2.2125576482365496e-02 0.0000000000000000e+00 
1.5308420838245751e-01 2.2920459713285862e-02 4.0455247738682943e-09 
1.4065330157862871e-01 2.2125581776904959e-02 4.4043231526716475e-09 
1.5318997081522220e-01 -2.2061607731755459e-02 0.0000000000000000e+00 
1.5318996472864702e-01 -2.2061602931116531e-02 0.0000000000000000e+00 
1.4075580023491086e-01 -2.1337124402231223e-02 0.0000000000000000e+00 
1.4075580402279519e-01 -2.1337112305409175e-02 0.0000000000000000e+00 
1.5318998530355543e-01 -2.2061613045990275e-02 3.1245145199240998e-09 
1.4075580706083984e-01 -2.1337126473101937e-02 1.6351769124175929e-09 
1.7911081895205369e-01 2.4276245935162467e-02 0.0000000000000000e+00 
1.7911085719280170e-01 2.4276241666931993e-02 0.0000000000000000e+00 
1.6590027831667514e-01 2.3644874949216660e-02 0.0000000000000000e+00 
1.6590030340254996e-01 2.3644880469959426e-02 0.0000000000000000e+00 
1.7911082518841615e-01 2.4276242514819083e-02 8.9618750760599300e-09 
1.6590029207967566e-01 2.3644874955768849e-02 7.4546618278628983e-09 
1.7914547294872279e-01 -2.3268761676613778e-02 0.0000000000000000e+00 
1.7914548482809969e-01 -2.3268763407024988e-02 0.0000000000000000e+00 
1.6597506567405385e-01 -2.2701401612313182e-02 0.0000000000000000e+00 
1.6597506437028597e-01 -2.2701397354379885e-02 0.0000000000000000e+00 
1.7914548286963711e-01 -2.3268773821813925e-02 7.3605101339637227e-10 
1.6597507143229714e-01 -2.2701401929527042e-02 4.2448500930338442e-10 
2.0634409454229979e-01 2.5114621362432105e-02 0.0000000000000000e+00 
2.0634409408273843e-01 2.5114613078389882e-02 0.0000000000000000e+00 
1.9263980315987669e-01 2.4750993925302976e-02 0.0000000000000000e+00 
1.9263981418677362e-01 2.4750984920064355e-02 0.0000000000000000e+00 
2.0634408633381074e-01 2.5114618277898914e-02 1.7431918790880875e-09 
1.9263979523630237e-01 2.4750995024341207e-02 4.8751706232446508e-09 
2.0633913514229033e-01 -2.4100585532906536e-02 0.0000000000000000e+00 
2.0633912884084868e-01 -2.4100569568646053e-02 0.0000000000000000e+00 
1.9264026054273753e-01 -2.3731520846591216e-02 0.0000000000000000e+00 
1.9264027554343760e-01 -2.3731511817558261e-02 0.0000000000000000e+00 
2.0633915009218118e-01 -2.4100599922634164e-02 2.9025652649022911e-09 
1.9264027078198342e-01 -2.3731530290470107e-02 -1.0985054914319339e-09 
2.3417095339788677e-01 2.5624544949996261e-02 0.0000000000000000e+00 
2.3417093619343760e-01 2.5624556873255148e-02 0.0000000000000000e+00 
2.2020100665628362e-01 2.5396418148678268e-02 0.0000000000000000e+00 
2.2020098459350862e-01 2.5396413657403319e-02 0.0000000000000000e+00 
2.3417094354585632e-01 2.5624553455669677e-02 -3.2745677713063374e-09 
2.2020097943837355e-01 2.5396420917349016e-02 -2.3862615079196344e-09 
2.3420914908670229e-01 -2.4637588721915883e-02 0.0000000000000000e+00 
2.3420912052197002e-01 -2.4637609610044579e-02 0.0000000000000000e+00 
2.2020823128923325e-01 -2.4396175067522813e-02 0.0000000000000000e+00 
2.2020819892060933e-01 -2.4396177657158631e-02 0.0000000000000000e+00 
2.3420913903703838e-01 -2.4637599620458882e-02 6.0146053922105522e-09 
2.2020823032864145e-01 -2.4396183814112189e-02 4.6671358630980204e-09 
2.6239771700328329e-01 2.6020188527692563e-02 0.0000000000000000e+00 
2.6239773306342568e-01 2.6020205781470233e-02 0.0000000000000000e+00 
2.4822050341957150e-01 2.5828903876489413e-02 0.0000000000000000e+00 
2.4822049484380843e-01 2.5828925430226572e-02 0.0000000000000000e+00 
2.6239770962946390e-01 2.6020195311906320e-02 -4.2292261105116630e-10 
2.4822049396460463e-01 2.5828910207413167e-02 -3.0628044619760053e-09 
2.6245752509857934e-01 -2.4971467839473696e-02 0.0000000000000000e+00 
2.6245753727549936e-01 -2.4971496050811781e-02 0.0000000000000000e+00 
2.4828943257162589e-01 -2.4820614685485645e-02 0.0000000000000000e+00 
2.4828942732044446e-01 -2.4820645544499684e-02 0.0000000000000000e+00 
2.6245753373672021e-01 -2.4971482871431864e-02 -3.0213126234826457e-09 
2.4828942556895742e-01 -2.4820625435023180e-02 7.0080991622787736e-10 
2.9107552461225189e-01 2.6280048552750901e-02 0.0000000000000000e+00 
2.9107554298170235e-01 2.6280039497341902e-02 0.0000000000000000e+00 
2.7670073240807047e-01 2.6178048097944141e-02 0.0000000000000000e+00 
2.7670075138571909e-01 2.6178056327291130e-02 0.0000000000000000e+00 
2.9107552313423857e-01 2.6280042536353597e-02 2.1697850906431851e-09 
2.7670072987828753e-01 2.6178054172348648e-02 1.8617658624841167e-09 
2.9112743847951705e-01 -2.5168040260765592e-02 0.0000000000000000e+00 
2.9112744610587987e-01 -2.5168050449738182e-02 0.0000000000000000e+00 
2.7674900197127938e-01 -2.5089119009883670e-02 0.0000000000000000e+00 
2.7674901169142929e-01 -2.5089134274062379e-02 0.0000000000000000e+00 
2.9112745223725034e-01 -2.5168036758227416e-02 -8.1138108329308367e-10 
2.7674901935907159e-01 -2.5089122742167839e-02 -2.8722967017484074e-09 
3.1988593271222215e-01 2.6251781144693304e-02 0.0000000000000000e+00 
3.1988590449925314e-01 2.6251771300259869e-02 0.0000000000000000e+00 
3.0549287778389461e-01 2.6307287555296183e-02 0.0000000000000000e+00 
3.0549286714989787e-01 2.6307278904225059e-02 0.0000000000000000e+00 
3.1988591123959298e-01 2.6251779321961072e-02 -1.6017858584119235e-09 
3.0549285935423787e-01 2.6307282476302145e-02 2.8112559218024328e-11 
3.1990392767434805e-01 -2.5212002099237768e-02 0.0000000000000000e+00 
3.1990390752578846e-01 -2.5212001086497928e-02 0.0000000000000000e+00 
3.0551827006276722e-01 -2.5203533672248611e-02 0.0000000000000000e+00 
3.0551825563800478e-01 -2.5203535345095888e-02 0.0000000000000000e+00 
3.1990391063717233e-01 -2.5211994143688021e-02 4.2444839151284297e-09 
3.0551825443633818e-01 -2.5203523746884910e-02 2.8304645607725571e-11 
3.4837566744976117e-01 2.6104178965232858e-02 0.0000000000000000e+00 
3.4841078899013272e-01 9.0325525233465702e-03 0.0000000000000000e+00 
3.4837566877600579e-01 2.6104194747730222e-02 0.0000000000000000e+00 
3.4841076993704007e-01 9.0325403372538780e-03 0.0000000000000000e+00 
3.3416302291898015e-01 2.6156397571968741e-02 0.0000000000000000e+00 
3.4838634095530568e-01 1.7576134204838324e-02 0.0000000000000000e+00 
3.3416299389877618e-01 2.6156396085962152e-02 0.0000000000000000e+00 
3.4838632767033068e-01 1.7576124448490701e-02 0.0000000000000000e+00 
3.4837567377877898e-01 2.6104193730162626e-02 7.4691073559476160e-10 
3.4841077956379451e-01 9.0325460596707291e-03 -2.5947138771300559e-10 
3.3416300713894165e-01 2.6156406965146858e-02 -2.3809075120192807e-09 
3.4838633963784915e-01 1.7576134556841705e-02 -8.9020832437886941e-10 
3.4846489767098199e-01 -8.0570012979788545e-03 0.0000000000000000e+00 
3.4846486905304475e-01 -8.0569999739806518e-03 0.0000000000000000e+00 
3.4844143035972974e-01 4.8903101414653053e-04 0.0000000000000000e+00 
3.4844140742789514e-01 4.8902655816323117e-04 0.0000000000000000e+00 
3.4846486952802902e-01 -8.0570037308953773e-03 3.7361816150596621e-09 
3.4844141461197847e-01 4.8902644296089891e-04 -7.2884346987881648e-10 
3.4846818548557673e-01 -2.5154303436153269e-02 0.0000000000000000e+00 
3.4846817123140494e-01 -2.5154296430193901e-02 0.0000000000000000e+00 
3.3422292007707177e-01 -2.5181713142908225e-02 0.0000000000000000e+00 
3.4847260280698611e-01 -1.6610350176626223e-02 0.0000000000000000e+00 
3.3422288972152270e-01 -2.5181714128407497e-02 0.0000000000000000e+00 
3.4847258067360887e-01 -1.6610343972012991e-02 0.0000000000000000e+00 
3.4846815274853105e-01 -2.5154288208222769e-02 8.4810988543784134e-09 
3.3422290001693145e-01 -2.5181701632088545e-02 6.6406273105326976e-09 
3.4847257692393363e-01 -1.6610343654607687e-02 6.4055928140226905e-09 

VECTORS Stress float
1.8849783702920675e+02 -8.0294791508872549e+00 -1.3503584369662349e-12 
1.8985545005106627e+02 -1.0905608874394829e+01 -1.1311757806402227e-12 
1.8849783702920675e+02 -8.0294791508872549e+00 -1.3503584369662349e-12 
1.8985545005106627e+02 -1.0905608874394829e+01 -1.1311757806402227e-12 
1.8969500227444223e+02 -8.0407469641138505e+00 -1.2550120639163997e-12 
1.8969500227444223e+02 -8.0407469641138505e+00 -1.2550120639163997e-12 
1.8849783702920675e+02 -8.0294791508872549e+00 -1.3503584369662349e-12 
1.8985545005106627e+02 -1.0905608874394829e+01 -1.1311757806402227e-12 
1.8969500227444223e+02 -8.0407469641138505e+00 -1.2550120639163997e-12 
-7.6780171781907882e+01 5.8352616978255583e+00 -1.1924446731872486e-12 
-7.9842712544339690e+01 4.7240413694876224e+00 -1.0853897435826075e-12 
-7.6780171781907882e+01 5.8352616978255583e+00 -1.1924446731872486e-12 
-7.9842712544339690e+01 4.7240413694876224e+00 -1.0853897435826075e-12 
-7.9192362308340648e+01 3.9327629101885577e+00 -1.1193734518270484e-12 
-7.9192362308340648e+01 3.9327629101885577e+00 -1.1193734518270484e-12 
-7.6780171781907882e+01 5.8352616978255583e+00 -1.1924446731872486e-12 
-7.9842712544339690e+01 4.7240413694876224e+00 -1.0853897435826075e-12 
-7.9192362308340648e+01 3.9327629101885577e+00 -1.1193734518270484e-12 
1.8926882927910776e+02 -1.9501257388105159e+01 -2.6229794540350378e-13 
1.8926882927910776e+02 -1.9501257388105159e+01 -2.6229794540350378e-13 
1.8960046313193743e+02 -1.5171740584050895e+01 -8.8519935748771881e-13 
1.8960046313193743e+02 -1.5171740584050895e+01 -8.8519935748771881e-13 
1.8926882927910776e+02 -1.9501257388105159e+01 -2.6229794540350378e-13 
1.8960046313193743e+02 -1.5171740584050895e+01 -8.8519935748771881e-13 
-7.9398650894149796e+01 8.9663755586091156e+00 -9.5958036440968422e-13 
-7.9398650894149796e+01 8.9663755586091156e+00 -9.5958036440968422e-13 
-7.9658030554750667e+01 6.8176773264131043e+00 -1.0403254120181855e-12 
-7.9658030554750667e+01 6.8176773264131043e+00 -1.0403254120181855e-12 
-7.9398650894149796e+01 8.9663755586091156e+00 -9.5958036440968422e-13 
-7.9658030554750667e+01 6.8176773264131043e+00 -1.0403254120181855e-12 
1.8826907990468965e+02 -2.7731020866786594e+01 1.3806262447155928e-12 
1.8826907990468965e+02 -2.7731020866786594e+01 1.3806262447155928e-12 
1.8882004958412438e+02 -2.3630872498026292e+01 7.0976008705679522e-13 
1.8882004958412438e+02 -2.3630872498026292e+01 7.0976008705679522e-13 
1.8826907990468965e+02 -2.7731020866786594e+01 1.3806262447155928e-12 
1.8882004958412438e+02 -2.3630872498026292e+01 7.0976008705679522e-13 
-7.9225015990366046e+01 1.2800250962825885e+01 -6.1797396959398162e-13 
-7.9225015990366046e+01 1.2800250962825885e+01 -6.1797396959398162e-13 
-7.9247547888064332e+01 1.0930104636754550e+01 -8.4601899482037099e-13 
-7.9247547888064332e+01 1.0930104636754550e+01 -8.4601899482037099e-13 
-7.9225015990366046e+01 1.2800250962825885e+01 -6.1797396959398162e-13 
-7.9247547888064332e+01 1.0930104636754550e+01 -8.4601899482037099e-13 
1.8581569310069517e+02 -3.6288825676233955e+01 2.0663416761153056e-13 
1.8581569310069517e+02 -3.6288825676233955e+01 2.0663416761153056e-13 
1.8712383095292682e+02 -3.2065398692544022e+01 9.7100003145383986e-13 
1.8712383095292682e+02 -3.2065398692544022e+01 9.7100003145383986e-13 
1.8581569310069517e+02 -3.6288825676233955e+01 2.0663416761153056e-13 
1.8712383095292682e+02 -3.2065398692544022e+01 9.7100003145383986e-13 
-7.8710301168220553e+01 1.6689809804807737e+01 6.3827919548053628e-13 
-7.8710301168220553e+01 1.6689809804807737e+01 6.3827919548053628e-13 
-7.8924008152147508e+01 1.4755425202075912e+01 -1.5983062373733232e-14 
-7.8924008152147508e+01 1.4755425202075912e+01 -1.5983062373733232e-14 
-7.8710301168220553e+01 1.6689809804807737e+01 6.3827919548053628e-13 
-7.8924008152147508e+01 1.4755425202075912e+01 -1.5983062373733232e-14 
1.8239456271025642e+02 -4.2805861552378246e+01 -5.7293912599798743e-13 
1.8239456271025642e+02 -4.2805861552378246e+01 -5.7293912599798743e-13 
1.8421126537092016e+02 -3.9839574874373739e+01 -3.0348040121597253e-13 
1.8421126537092016e+02 -3.9839574874373739e+01 -3.0348040121597253e-13 
1.8239456271025642e+02 -4.2805861552378246e+01 -5.7293912599798743e-13 
1.8421126537092016e+02 -3.9839574874373739e+01 -3.0348040121597253e-13 
-7.8086980594713395e+01 1.9770263718282877e+01 1.5200085699195868e-12 
-7.8086980594713395e+01 1.9770263718282877e+01 1.5200085699195868e-12 
-7.8409343364185588e+01 1.8331915344796471e+01 1.1639957527538913e-12 
-7.8409343364185588e+01 1.8331915344796471e+01 1.1639957527538913e-12 
-7.8086980594713395e+01 1.9770263718282877e+01 1.5200085699195868e-12 
-7.8409343364185588e+01 1.8331915344796471e+01 1.1639957527538913e-12 
1.7807626170282310e+02 -4.7867327231756008e+01 -1.2963363043412244e-12 
1.7807626170282310e+02 -4.7867327231756008e+01 -1.2963363043412244e-12 
1.8042341030303510e+02 -4.5487068280113817e+01 -8.8151934605180968e-13 
1.8042341030303510e+02 -4.5487068280113817e+01 -8.8151934605180968e-13 
1.7807626170282310e+02 -4.7867327231756008e+01 -1.2963363043412244e-12 
1.8042341030303510e+02 -4.5487068280113817e+01 -8.8151934605180968e-13 
-7.7319391340192169e+01 2.2325196666372904e+01 1.2464835811495634e-12 
-7.7319391340192169e+01 2.2325196666372904e+01 1.2464835811495634e-12 
-7.7798307215582099e+01 2.1136012349604243e+01 1.5960078432657358e-12 
-7.7798307215582099e+01 2.1136012349604243e+01 1.5960078432657358e-12 
-7.7319391340192169e+01 2.2325196666372904e+01 1.2464835811495634e-12 
-7.7798307215582099e+01 2.1136012349604243e+01 1.5960078432657358e-12 
1.7286583685358164e+02 -5.2235590442405282e+01 -1.9452044073535269e-12 
1.7286583685358164e+02 -5.2235590442405282e+01 -1.9452044073535269e-12 
1.7564594237391475e+02 -5.0157083242060708e+01 -1.7162929531479673e-12 
1.7564594237391475e+02 -5.0157083242060708e+01 -1.7162929531479673e-12 
1.7286583685358164e+02 -5.2235590442405282e+01 -1.9452044073535269e-12 
1.7564594237391475e+02 -5.0157083242060708e+01 -1.7162929531479673e-12 
-7.6279826871942760e+01 2.4670558952962892e+01 4.8404879596841768e-13 
-7.6279826871942760e+01 2.4670558952962892e+01 4.8404879596841768e-13 
-7.6909541117839581e+01 2.3546636309190944e+01 8.1018507112472930e-13 
-7.6909541117839581e+01 2.3546636309190944e+01 8.1018507112472930e-13 
-7.6279826871942760e+01 2.4670558952962892e+01 4.8404879596841768e-13 
-7.6909541117839581e+01 2.3546636309190944e+01 8.1018507112472930e-13 
1.6687487786321640e+02 -5.6107943237871950e+01 -1.6279712929632136e-12 
1.6687487786321640e+02 -5.6107943237871950e+01 -1.6279712929632136e-12 
1.6994884946065145e+02 -5.4238248549761465e+01 -1.9682448191138907e-12 
1.6994884946065145e+02 -5.4238248549761465e+01 -1.9682448191138907e-12 
1.6687487786321640e+02 -5.6107943237871950e+01 -1.6279712929632136e-12 
1.6994884946065145e+02 -5.4238248549761465e+01 -1.9682448191138907e-12 
-7.4848577710621612e+01 2.6928470046189432e+01 -1.2852959062131780e-13 
-7.4848577710621612e+01 2.6928470046189432e+01 -1.2852959062131780e-13 
-7.5612822928362220e+01 2.5820587035293556e+01 2.3988869030009983e-13 
-7.5612822928362220e+01 2.5820587035293556e+01 2.3988869030009983e-13 
-7.4848577710621612e+01 2.6928470046189432e+01 -1.2852959062131780e-13 
-7.5612822928362220e+01 2.5820587035293556e+01 2.3988869030009983e-13 
1.6025030472419564e+02 -5.9469880607561663e+01 -4.6594990546076609e-13 
1.6025030472419564e+02 -5.9469880607561663e+01 -4.6594990546076609e-13 
1.6358805939477952e+02 -5.7804704537516045e+01 -9.4487531657249130e-13 
1.6358805939477952e+02 -5.7804704537516045e+01 -9.4487531657249130e-13 
1.6025030472419564e+02 -5.9469880607561663e+01 -4.6594990546076609e-13 
1.6358805939477952e+02 -5.7804704537516045e+01 -9.4487531657249130e-13 
-7.2968972171192831e+01 2.9027542956580874e+01 -8.7059796514759994e-13 
-7.2968972171192831e+01 2.9027542956580874e+01 -8.7059796514759994e-13 
-7.3910381822064437e+01 2.7948992481216919e+01 -6.4352475062059022e-13 
-7.3910381822064437e+01 2.7948992481216919e+01 -6.4352475062059022e-13 
-7.2968972171192831e+01 2.9027542956580874e+01 -8.7059796514759994e-13 
-7.3910381822064437e+01 2.7948992481216919e+01 -6.4352475062059022e-13 
1.5302553593266487e+02 -6.2226344080067975e+01 -1.4642315291079726e-12 
1.5302553593266487e+02 -6.2226344080067975e+01 -1.4642315291079726e-12 
1.5666003765653500e+02 -6.0870884272980675e+01 -8.5162478235213062e-13 
1.5666003765653500e+02 -6.0870884272980675e+01 -8.5162478235213062e-13 
1.5302553593266487e+02 -6.2226344080067975e+01 -1.4642315291079726e-12 
1.5666003765653500e+02 -6.0870884272980675e+01 -8.5162478235213062e-13 
-7.0659693624174110e+01 3.0863734688287650e+01 6.1652885757468809e-13 
-7.0659693624174110e+01 3.0863734688287650e+01 6.1652885757468809e-13 
-7.1816266174144175e+01 2.9938702927000122e+01 -2.4497324168565604e-13 
-7.1816266174144175e+01 2.9938702927000122e+01 -2.4497324168565604e-13 
-7.0659693624174110e+01 3.0863734688287650e+01 6.1652885757468809e-13 
-7.1816266174144175e+01 2.9938702927000122e+01 -2.4497324168565604e-13 
1.4553698307156958e+02 -6.3995304084641703e+01 -1.6260515884530179e-12 
1.4553698307156958e+02 -6.3995304084641703e+01 -1.6260515884530179e-12 
1.4930452687340050e+02 -6.3241794047615940e+01 -1.7405690429192491e-12 
1.4930452687340050e+02 -6.3241794047615940e+01 -1.7405690429192491e-12 
1.4553698307156958e+02 -6.3995304084641703e+01 -1.6260515884530179e-12 
1.4930452687340050e+02 -6.3241794047615940e+01 -1.7405690429192491e-12 
-6.8192057762580589e+01 3.1818511192846017e+01 1.3501811194787221e-12 
-6.8192057762580589e+01 3.1818511192846017e+01 1.3501811194787221e-12 
-6.9448630549416180e+01 3.1457220050583146e+01 1.1795556704695114e-12 
-6.9448630549416180e+01 3.1457220050583146e+01 1.1795556704695114e-12 
-6.8192057762580589e+01 3.1818511192846017e+01 1.3501811194787221e-12 
-6.9448630549416180e+01 3.1457220050583146e+01 1.1795556704695114e-12 
1.3810333984027341e+02 -6.4649296602854974e+01 3.3841501590191238e-13 
1.3810333984027341e+02 -6.4649296602854974e+01 3.3841501590191238e-13 
1.4180505885876153e+02 -6.4558014187011167e+01 -1.0353076785975218e-12 
1.4180505885876153e+02 -6.4558014187011167e+01 -1.0353076785975218e-12 
1.3810333984027341e+02 -6.4649296602854974e+01 3.3841501590191238e-13 
1.4180505885876153e+02 -6.4558014187011167e+01 -1.0353076785975218e-12 
-6.5529097644961553e+01 3.2035354128378458e+01 -4.0867841592570643e-13 
-6.5529097644961553e+01 3.2035354128378458e+01 -4.0867841592570643e-13 
-6.6909189886630770e+01 3.2087284147784658e+01 9.4211872196597553e-13 
-6.6909189886630770e+01 3.2087284147784658e+01 9.4211872196597553e-13 
-6.5529097644961553e+01 3.2035354128378458e+01 -4.0867841592570643e-13 
-6.6909189886630770e+01 3.2087284147784658e+01 9.4211872196597553e-13 
1.3103007172477703e+02 -6.3884117900840693e+01 2.9016382048797581e-12 
1.3103007172477703e+02 -6.3884117900840693e+01 2.9016382048797581e-12 
1.3448459598582224e+02 -6.4576663561473197e+01 1.8229947359574669e-12 
1.3448459598582224e+02 -6.4576663561473197e+01 1.8229947359574669e-12 
1.3103007172477703e+02 -6.3884117900840693e+01 2.9016382048797581e-12 
1.3448459598582224e+02 -6.4576663561473197e+01 1.8229947359574669e-12 
-6.2648506415058762e+01 3.1571987005490655e+01 -2.7308696266344720e-12 
-6.2648506415058762e+01 3.1571987005490655e+01 -2.7308696266344720e-12 
-6.4110165086811890e+01 3.1995274591522275e+01 -1.8640547787622043e-12 
-6.4110165086811890e+01 3.1995274591522275e+01 -1.8640547787622043e-12 
-6.2648506415058762e+01 3.1571987005490655e+01 -2.7308696266344720e-12 
-6.4110165086811890e+01 3.1995274591522275e+01 -1.8640547787622043e-12 
1.2422823684630453e+02 -6.1842004344424709e+01 3.3094242592759063e-12 
1.2422823684630453e+02 -6.1842004344424709e+01 3.3094242592759063e-12 
1.2763293631837990e+02 -6.2931485178388584e+01 3.5805327101041108e-12 
1.2763293631837990e+02 -6.2931485178388584e+01 3.5805327101041108e-12 
1.2422823684630453e+02 -6.1842004344424709e+01 3.3094242592759063e-12 
1.2763293631837990e+02 -6.2931485178388584e+01 3.5805327101041108e-12 
-5.9604584671431439e+01 3.0592597487127591e+01 -2.6836436899308360e-12 
-5.9604584671431439e+01 3.0592597487127591e+01 -2.6836436899308360e-12 
-6.1150291153614830e+01 3.1080229355512188e+01 -3.1198615003524505e-12 
-6.1150291153614830e+01 3.1080229355512188e+01 -3.1198615003524505e-12 
-5.9604584671431439e+01 3.0592597487127591e+01 -2.6836436899308360e-12 
-6.1150291153614830e+01 3.1080229355512188e+01 -3.1198615003524505e-12 
1.1649426119979273e+02 -5.8986052566345165e+01 7.1296469749635906e-13 
1.1649426119979273e+02 -5.8986052566345165e+01 7.1296469749635906e-13 
1.2066505316951509e+02 -6.0547648839168346e+01 1.9746658768751685e-12 
1.2066505316951509e+02 -6.0547648839168346e+01 1.9746658768751685e-12 
1.1649426119979273e+02 -5.8986052566345165e+01 7.1296469749635906e-13 
1.2066505316951526e+02 -6.0547648839168460e+01 1.9746658768751621e-12 
-5.6403890666829739e+01 2.9261198150910559e+01 2.2480876693833958e-13 
-5.6403890666829739e+01 2.9261198150910559e+01 2.2480876693833958e-13 
-5.8017968922925320e+01 3.0015185748943168e+01 -1.3029467767615292e-12 
-5.8017968922925320e+01 3.0015185748943168e+01 -1.3029467767615292e-12 
-5.6403890666829739e+01 2.9261198150910559e+01 2.2480876693833958e-13 
-5.8017968922925547e+01 3.0015185748943509e+01 -1.3029467767615090e-12 
1.0635367058406030e+02 -5.4467519392966381e+01 1.7385068105718927e-13 
1.0635367058406030e+02 -5.4467519392966381e+01 1.7385068105718927e-13 
1.1117731245825493e+02 -5.6558017034172508e+01 2.5697053116490861e-13 
1.1117731245825493e+02 -5.6558017034172508e+01 2.5697053116490861e-13 
1.0635367058406030e+02 -5.4467519392966381e+01 1.7385068105718927e-13 
1.1117731245825493e+02 -5.6558017034172508e+01 2.5697053116490861e-13 
-5.3074135074211526e+01 2.6962750477094062e+01 2.5300630075094747e-12 
-5.3074135074211526e+01 2.6962750477094062e+01 2.5300630075094747e-12 
-5.4685090056780581e+01 2.7708110897383676e+01 1.5056851203271511e-12 
-5.4685090056780581e+01 2.7708110897383676e+01 1.5056851203271511e-12 
-5.3074135074211526e+01 2.6962750477094062e+01 2.5300630075094747e-12 
-5.4685090056780581e+01 2.7708110897383676e+01 1.5056851203271511e-12 
1.0531661744270119e+02 -5.5208607928134938e+01 9.4530948833355193e-13 
1.0531661744270119e+02 -5.5208607928134938e+01 9.4530948833355193e-13 
1.0656178244115543e+02 -5.5213021332317339e+01 5.0404671708877413e-13 
1.0656178244115543e+02 -5.5213021332317339e+01 5.0404671708877413e-13 
1.0531661744270119e+02 -5.5208607928134938e+01 9.4530948833355193e-13 
1.0656178244115557e+02 -5.5213021332317339e+01 5.0404671708873535e-13 
-5.2063330145977289e+01 3.3649386712985347e+01 2.4988312255486769e-12 
-5.2063330145977289e+01 3.3649386712985347e+01 2.4988312255486769e-12 
-5.2388091478065206e+01 3.0521156828355771e+01 2.8623728964204721e-12 
-5.2388091478065206e+01 3.0521156828355771e+01 2.8623728964204721e-12 
-5.2063330145977289e+01 3.3649386712985347e+01 2.4988312255486769e-12 
-5.2388091478065078e+01 3.0521156828355672e+01 2.8623728964204673e-12 
3.0869751384187367e+01 -6.8735882422068357e+00 8.2473609097494954e-14 
-7.4920779224455316e+00 -4.3299409209521400e+00 -5.1547244879923003e-15 
3.0869751384187367e+01 -6.8735882422068357e+00 8.2473609097494954e-14 
-7.4920779224455316e+00 -4.3299409209521400e+00 -5.1547244879923003e-15 
8.1910490462818728e+01 -4.0318192803745717e+01 8.8135492802110482e-13 
1.8410993340034736e+00 3.4080764235868628e+00 -5.1892658740631346e-24 
8.1910490462818728e+01 -4.0318192803745717e+01 8.8135492802110482e-13 
1.8410993340034736e+00 3.4080764235868628e+00 -5.1892658740631346e-24 
3.0869751384187367e+01 -6.8735882422068357e+00 8.2473609097494954e-14 
-7.4920779224455316e+00 -4.3299409209521400e+00 -5.1547244879923003e-15 
8.1910490462818728e+01 -4.0318192803745717e+01 8.8135492802110482e-13 
1.8410993340034736e+00 3.4080764235868628e+00 -5.1892658740631346e-24 
-1.0192467026954960e+01 -2.8597362815798277e+01 -3.1497958435326207e-14 
-1.0192467026954960e+01 -2.8597362815798277e+01 -3.1497958435326207e-14 
-9.1703047739812433e+00 -1.7733445835913869e+01 8.7938756755814094e-17 
-9.1703047739812433e+00 -1.7733445835913869e+01 8.7938756755814094e-17 
-1.0192467026954960e+01 -2.8597362815798277e+01 -3.1497958435326207e-14 
-9.1703047739812433e+00 -1.7733445835913869e+01 8.7938756755814094e-17 
-3.7776821827891453e+01 -1.8299180476342332e+01 2.6063048614424749e-13 
-3.7776821827891453e+01 -1.8299180476342332e+01 2.6063048614424749e-13 
-4.6989303129049304e+01 1.9134365202302092e+01 1.5921248611388647e-12 
-1.6609961695524149e+01 -3.2063364073382019e+01 8.7310838709033151e-17 
-4.6989303129049304e+01 1.9134365202302092e+01 1.5921248611388647e-12 
-1.6609961695524149e+01 -3.2063364073382019e+01 8.7310838709033151e-17 
-3.7776821827891453e+01 -1.8299180476342332e+01 2.6063048614424749e-13 
-4.6989303129049304e+01 1.9134365202302092e+01 1.5921248611388647e-12 
-1.6609961695524163e+01 -3.2063364073381990e+01 8.7310838703378596e-17 

