# vtk DataFile Version 2.0

ASCII

DATASET UNSTRUCTURED_GRID

POINTS 237 float 

-5.0000000000000003e-02  0.0000000000000000e+00  0.0000000000000000e+00
-5.0000000000000003e-02  5.5555555555555552e-02  0.0000000000000000e+00
-5.0000000000000003e-02  0.0000000000000000e+00  2.9999999999999999e-01
-5.0000000000000003e-02  5.5555555555555552e-02  2.9999999999999999e-01
-5.0000000000000003e-02  2.7777777777777776e-02  0.0000000000000000e+00
-5.0000000000000003e-02  2.7777777777777776e-02  2.9999999999999999e-01
-5.0000000000000003e-02  0.0000000000000000e+00  1.4999999999999999e-01
-5.0000000000000003e-02  5.5555555555555552e-02  1.4999999999999999e-01
-5.0000000000000003e-02  2.7777777777777776e-02  1.4999999999999999e-01
5.0000000000000003e-02  0.0000000000000000e+00  0.0000000000000000e+00
5.0000000000000003e-02  5.5555555555555552e-02  0.0000000000000000e+00
5.0000000000000003e-02  0.0000000000000000e+00  2.9999999999999999e-01
5.0000000000000003e-02  5.5555555555555552e-02  2.9999999999999999e-01
5.0000000000000003e-02  2.7777777777777776e-02  0.0000000000000000e+00
5.0000000000000003e-02  2.7777777777777776e-02  2.9999999999999999e-01
5.0000000000000003e-02  0.0000000000000000e+00  1.4999999999999999e-01
5.0000000000000003e-02  5.5555555555555552e-02  1.4999999999999999e-01
5.0000000000000003e-02  2.7777777777777776e-02  1.4999999999999999e-01
-5.0000000000000003e-02  1.1111111111111110e-01  0.0000000000000000e+00
-5.0000000000000003e-02  1.1111111111111110e-01  2.9999999999999999e-01
-5.0000000000000003e-02  8.3333333333333329e-02  0.0000000000000000e+00
-5.0000000000000003e-02  8.3333333333333329e-02  2.9999999999999999e-01
-5.0000000000000003e-02  1.1111111111111110e-01  1.4999999999999999e-01
-5.0000000000000003e-02  8.3333333333333329e-02  1.4999999999999999e-01
5.0000000000000003e-02  1.1111111111111110e-01  0.0000000000000000e+00
5.0000000000000003e-02  1.1111111111111110e-01  2.9999999999999999e-01
5.0000000000000003e-02  8.3333333333333329e-02  0.0000000000000000e+00
5.0000000000000003e-02  8.3333333333333329e-02  2.9999999999999999e-01
5.0000000000000003e-02  1.1111111111111110e-01  1.4999999999999999e-01
5.0000000000000003e-02  8.3333333333333329e-02  1.4999999999999999e-01
-5.0000000000000003e-02  1.6666666666666666e-01  0.0000000000000000e+00
-5.0000000000000003e-02  1.6666666666666666e-01  2.9999999999999999e-01
-5.0000000000000003e-02  1.3888888888888890e-01  0.0000000000000000e+00
-5.0000000000000003e-02  1.3888888888888890e-01  2.9999999999999999e-01
-5.0000000000000003e-02  1.6666666666666666e-01  1.4999999999999999e-01
-5.0000000000000003e-02  1.3888888888888890e-01  1.4999999999999999e-01
5.0000000000000003e-02  1.6666666666666666e-01  0.0000000000000000e+00
5.0000000000000003e-02  1.6666666666666666e-01  2.9999999999999999e-01
5.0000000000000003e-02  1.3888888888888890e-01  0.0000000000000000e+00
5.0000000000000003e-02  1.3888888888888890e-01  2.9999999999999999e-01
5.0000000000000003e-02  1.6666666666666666e-01  1.4999999999999999e-01
5.0000000000000003e-02  1.3888888888888890e-01  1.4999999999999999e-01
-5.0000000000000003e-02  2.2222222222222221e-01  0.0000000000000000e+00
-5.0000000000000003e-02  2.2222222222222221e-01  2.9999999999999999e-01
-5.0000000000000003e-02  1.9444444444444442e-01  0.0000000000000000e+00
-5.0000000000000003e-02  1.9444444444444442e-01  2.9999999999999999e-01
-5.0000000000000003e-02  2.2222222222222221e-01  1.4999999999999999e-01
-5.0000000000000003e-02  1.9444444444444442e-01  1.4999999999999999e-01
5.0000000000000003e-02  2.2222222222222221e-01  0.0000000000000000e+00
5.0000000000000003e-02  2.2222222222222221e-01  2.9999999999999999e-01
5.0000000000000003e-02  1.9444444444444442e-01  0.0000000000000000e+00
5.0000000000000003e-02  1.9444444444444442e-01  2.9999999999999999e-01
5.0000000000000003e-02  2.2222222222222221e-01  1.4999999999999999e-01
5.0000000000000003e-02  1.9444444444444442e-01  1.4999999999999999e-01
-5.0000000000000003e-02  2.7777777777777779e-01  0.0000000000000000e+00
-5.0000000000000003e-02  2.7777777777777779e-01  2.9999999999999999e-01
-5.0000000000000003e-02  2.5000000000000000e-01  0.0000000000000000e+00
-5.0000000000000003e-02  2.5000000000000000e-01  2.9999999999999999e-01
-5.0000000000000003e-02  2.7777777777777779e-01  1.4999999999999999e-01
-5.0000000000000003e-02  2.5000000000000000e-01  1.4999999999999999e-01
5.0000000000000003e-02  2.7777777777777779e-01  0.0000000000000000e+00
5.0000000000000003e-02  2.7777777777777779e-01  2.9999999999999999e-01
5.0000000000000003e-02  2.5000000000000000e-01  0.0000000000000000e+00
5.0000000000000003e-02  2.5000000000000000e-01  2.9999999999999999e-01
5.0000000000000003e-02  2.7777777777777779e-01  1.4999999999999999e-01
5.0000000000000003e-02  2.5000000000000000e-01  1.4999999999999999e-01
-5.0000000000000003e-02  3.3333333333333331e-01  0.0000000000000000e+00
-5.0000000000000003e-02  3.3333333333333331e-01  2.9999999999999999e-01
-5.0000000000000003e-02  3.0555555555555558e-01  0.0000000000000000e+00
-5.0000000000000003e-02  3.0555555555555558e-01  2.9999999999999999e-01
-5.0000000000000003e-02  3.3333333333333331e-01  1.4999999999999999e-01
-5.0000000000000003e-02  3.0555555555555558e-01  1.4999999999999999e-01
5.0000000000000003e-02  3.3333333333333331e-01  0.0000000000000000e+00
5.0000000000000003e-02  3.3333333333333331e-01  2.9999999999999999e-01
5.0000000000000003e-02  3.0555555555555558e-01  0.0000000000000000e+00
5.0000000000000003e-02  3.0555555555555558e-01  2.9999999999999999e-01
5.0000000000000003e-02  3.3333333333333331e-01  1.4999999999999999e-01
5.0000000000000003e-02  3.0555555555555558e-01  1.4999999999999999e-01
-5.0000000000000003e-02  3.8888888888888884e-01  0.0000000000000000e+00
-5.0000000000000003e-02  3.8888888888888884e-01  2.9999999999999999e-01
-5.0000000000000003e-02  3.6111111111111105e-01  0.0000000000000000e+00
-5.0000000000000003e-02  3.6111111111111105e-01  2.9999999999999999e-01
-5.0000000000000003e-02  3.8888888888888884e-01  1.4999999999999999e-01
-5.0000000000000003e-02  3.6111111111111105e-01  1.4999999999999999e-01
5.0000000000000003e-02  3.8888888888888884e-01  0.0000000000000000e+00
5.0000000000000003e-02  3.8888888888888884e-01  2.9999999999999999e-01
5.0000000000000003e-02  3.6111111111111105e-01  0.0000000000000000e+00
5.0000000000000003e-02  3.6111111111111105e-01  2.9999999999999999e-01
5.0000000000000003e-02  3.8888888888888884e-01  1.4999999999999999e-01
5.0000000000000003e-02  3.6111111111111105e-01  1.4999999999999999e-01
-5.0000000000000003e-02  4.4444444444444442e-01  0.0000000000000000e+00
-5.0000000000000003e-02  4.4444444444444442e-01  2.9999999999999999e-01
-5.0000000000000003e-02  4.1666666666666663e-01  0.0000000000000000e+00
-5.0000000000000003e-02  4.1666666666666663e-01  2.9999999999999999e-01
-5.0000000000000003e-02  4.4444444444444442e-01  1.4999999999999999e-01
-5.0000000000000003e-02  4.1666666666666663e-01  1.4999999999999999e-01
5.0000000000000003e-02  4.4444444444444442e-01  0.0000000000000000e+00
5.0000000000000003e-02  4.4444444444444442e-01  2.9999999999999999e-01
5.0000000000000003e-02  4.1666666666666663e-01  0.0000000000000000e+00
5.0000000000000003e-02  4.1666666666666663e-01  2.9999999999999999e-01
5.0000000000000003e-02  4.4444444444444442e-01  1.4999999999999999e-01
5.0000000000000003e-02  4.1666666666666663e-01  1.4999999999999999e-01
-5.0000000000000003e-02  5.0000000000000000e-01  0.0000000000000000e+00
-5.0000000000000003e-02  5.0000000000000000e-01  2.9999999999999999e-01
-5.0000000000000003e-02  4.7222222222222221e-01  0.0000000000000000e+00
-5.0000000000000003e-02  4.7222222222222221e-01  2.9999999999999999e-01
-5.0000000000000003e-02  5.0000000000000000e-01  1.4999999999999999e-01
-5.0000000000000003e-02  4.7222222222222221e-01  1.4999999999999999e-01
5.0000000000000003e-02  5.0000000000000000e-01  0.0000000000000000e+00
5.0000000000000003e-02  5.0000000000000000e-01  2.9999999999999999e-01
5.0000000000000003e-02  4.7222222222222221e-01  0.0000000000000000e+00
5.0000000000000003e-02  4.7222222222222221e-01  2.9999999999999999e-01
5.0000000000000003e-02  5.0000000000000000e-01  1.4999999999999999e-01
5.0000000000000003e-02  4.7222222222222221e-01  1.4999999999999999e-01
-5.0000000000000003e-02  5.5555555555555558e-01  0.0000000000000000e+00
-5.0000000000000003e-02  5.5555555555555558e-01  2.9999999999999999e-01
-5.0000000000000003e-02  5.2777777777777779e-01  0.0000000000000000e+00
-5.0000000000000003e-02  5.2777777777777779e-01  2.9999999999999999e-01
-5.0000000000000003e-02  5.5555555555555558e-01  1.4999999999999999e-01
-5.0000000000000003e-02  5.2777777777777779e-01  1.4999999999999999e-01
5.0000000000000003e-02  5.5555555555555558e-01  0.0000000000000000e+00
5.0000000000000003e-02  5.5555555555555558e-01  2.9999999999999999e-01
5.0000000000000003e-02  5.2777777777777779e-01  0.0000000000000000e+00
5.0000000000000003e-02  5.2777777777777779e-01  2.9999999999999999e-01
5.0000000000000003e-02  5.5555555555555558e-01  1.4999999999999999e-01
5.0000000000000003e-02  5.2777777777777779e-01  1.4999999999999999e-01
-5.0000000000000003e-02  6.1111111111111105e-01  0.0000000000000000e+00
-5.0000000000000003e-02  6.1111111111111105e-01  2.9999999999999999e-01
-5.0000000000000003e-02  5.8333333333333326e-01  0.0000000000000000e+00
-5.0000000000000003e-02  5.8333333333333326e-01  2.9999999999999999e-01
-5.0000000000000003e-02  6.1111111111111105e-01  1.4999999999999999e-01
-5.0000000000000003e-02  5.8333333333333326e-01  1.4999999999999999e-01
5.0000000000000003e-02  6.1111111111111105e-01  0.0000000000000000e+00
5.0000000000000003e-02  6.1111111111111105e-01  2.9999999999999999e-01
5.0000000000000003e-02  5.8333333333333326e-01  0.0000000000000000e+00
5.0000000000000003e-02  5.8333333333333326e-01  2.9999999999999999e-01
5.0000000000000003e-02  6.1111111111111105e-01  1.4999999999999999e-01
5.0000000000000003e-02  5.8333333333333326e-01  1.4999999999999999e-01
-5.0000000000000003e-02  6.6666666666666663e-01  0.0000000000000000e+00
-5.0000000000000003e-02  6.6666666666666663e-01  2.9999999999999999e-01
-5.0000000000000003e-02  6.3888888888888884e-01  0.0000000000000000e+00
-5.0000000000000003e-02  6.3888888888888884e-01  2.9999999999999999e-01
-5.0000000000000003e-02  6.6666666666666663e-01  1.4999999999999999e-01
-5.0000000000000003e-02  6.3888888888888884e-01  1.4999999999999999e-01
5.0000000000000003e-02  6.6666666666666663e-01  0.0000000000000000e+00
5.0000000000000003e-02  6.6666666666666663e-01  2.9999999999999999e-01
5.0000000000000003e-02  6.3888888888888884e-01  0.0000000000000000e+00
5.0000000000000003e-02  6.3888888888888884e-01  2.9999999999999999e-01
5.0000000000000003e-02  6.6666666666666663e-01  1.4999999999999999e-01
5.0000000000000003e-02  6.3888888888888884e-01  1.4999999999999999e-01
-5.0000000000000003e-02  7.2222222222222221e-01  0.0000000000000000e+00
-5.0000000000000003e-02  7.2222222222222221e-01  2.9999999999999999e-01
-5.0000000000000003e-02  6.9444444444444442e-01  0.0000000000000000e+00
-5.0000000000000003e-02  6.9444444444444442e-01  2.9999999999999999e-01
-5.0000000000000003e-02  7.2222222222222221e-01  1.4999999999999999e-01
-5.0000000000000003e-02  6.9444444444444442e-01  1.4999999999999999e-01
5.0000000000000003e-02  7.2222222222222221e-01  0.0000000000000000e+00
5.0000000000000003e-02  7.2222222222222221e-01  2.9999999999999999e-01
5.0000000000000003e-02  6.9444444444444442e-01  0.0000000000000000e+00
5.0000000000000003e-02  6.9444444444444442e-01  2.9999999999999999e-01
5.0000000000000003e-02  7.2222222222222221e-01  1.4999999999999999e-01
5.0000000000000003e-02  6.9444444444444442e-01  1.4999999999999999e-01
-5.0000000000000003e-02  7.7777777777777768e-01  0.0000000000000000e+00
-5.0000000000000003e-02  7.7777777777777768e-01  2.9999999999999999e-01
-5.0000000000000003e-02  7.5000000000000000e-01  0.0000000000000000e+00
-5.0000000000000003e-02  7.5000000000000000e-01  2.9999999999999999e-01
-5.0000000000000003e-02  7.7777777777777768e-01  1.4999999999999999e-01
-5.0000000000000003e-02  7.5000000000000000e-01  1.4999999999999999e-01
5.0000000000000003e-02  7.7777777777777768e-01  0.0000000000000000e+00
5.0000000000000003e-02  7.7777777777777768e-01  2.9999999999999999e-01
5.0000000000000003e-02  7.5000000000000000e-01  0.0000000000000000e+00
5.0000000000000003e-02  7.5000000000000000e-01  2.9999999999999999e-01
5.0000000000000003e-02  7.7777777777777768e-01  1.4999999999999999e-01
5.0000000000000003e-02  7.5000000000000000e-01  1.4999999999999999e-01
-5.0000000000000003e-02  8.3333333333333326e-01  0.0000000000000000e+00
-5.0000000000000003e-02  8.3333333333333326e-01  2.9999999999999999e-01
-5.0000000000000003e-02  8.0555555555555547e-01  0.0000000000000000e+00
-5.0000000000000003e-02  8.0555555555555547e-01  2.9999999999999999e-01
-5.0000000000000003e-02  8.3333333333333326e-01  1.4999999999999999e-01
-5.0000000000000003e-02  8.0555555555555536e-01  1.4999999999999999e-01
5.0000000000000003e-02  8.3333333333333326e-01  0.0000000000000000e+00
5.0000000000000003e-02  8.3333333333333326e-01  2.9999999999999999e-01
5.0000000000000003e-02  8.0555555555555547e-01  0.0000000000000000e+00
5.0000000000000003e-02  8.0555555555555547e-01  2.9999999999999999e-01
5.0000000000000003e-02  8.3333333333333326e-01  1.4999999999999999e-01
5.0000000000000003e-02  8.0555555555555536e-01  1.4999999999999999e-01
-5.0000000000000003e-02  8.8888888888888884e-01  0.0000000000000000e+00
-5.0000000000000003e-02  8.8888888888888884e-01  2.9999999999999999e-01
-5.0000000000000003e-02  8.6111111111111105e-01  0.0000000000000000e+00
-5.0000000000000003e-02  8.6111111111111105e-01  2.9999999999999999e-01
-5.0000000000000003e-02  8.8888888888888884e-01  1.4999999999999999e-01
-5.0000000000000003e-02  8.6111111111111105e-01  1.4999999999999999e-01
5.0000000000000003e-02  8.8888888888888884e-01  0.0000000000000000e+00
5.0000000000000003e-02  8.8888888888888884e-01  2.9999999999999999e-01
5.0000000000000003e-02  8.6111111111111105e-01  0.0000000000000000e+00
5.0000000000000003e-02  8.6111111111111105e-01  2.9999999999999999e-01
5.0000000000000003e-02  8.8888888888888884e-01  1.4999999999999999e-01
5.0000000000000003e-02  8.6111111111111105e-01  1.4999999999999999e-01
-5.0000000000000003e-02  9.4444444444444442e-01  0.0000000000000000e+00
-5.0000000000000003e-02  9.4444444444444442e-01  2.9999999999999999e-01
-5.0000000000000003e-02  9.1666666666666663e-01  0.0000000000000000e+00
-5.0000000000000003e-02  9.1666666666666663e-01  2.9999999999999999e-01
-5.0000000000000003e-02  9.4444444444444442e-01  1.4999999999999999e-01
-5.0000000000000003e-02  9.1666666666666674e-01  1.4999999999999999e-01
5.0000000000000003e-02  9.4444444444444442e-01  0.0000000000000000e+00
5.0000000000000003e-02  9.4444444444444442e-01  2.9999999999999999e-01
5.0000000000000003e-02  9.1666666666666663e-01  0.0000000000000000e+00
5.0000000000000003e-02  9.1666666666666663e-01  2.9999999999999999e-01
5.0000000000000003e-02  9.4444444444444442e-01  1.4999999999999999e-01
5.0000000000000003e-02  9.1666666666666674e-01  1.4999999999999999e-01
-5.0000000000000003e-02  1.0000000000000000e+00  0.0000000000000000e+00
-1.6666666666666670e-02  1.0000000000000000e+00  0.0000000000000000e+00
-5.0000000000000003e-02  1.0000000000000000e+00  2.9999999999999999e-01
-1.6666666666666670e-02  1.0000000000000000e+00  2.9999999999999999e-01
-5.0000000000000003e-02  9.7222222222222221e-01  0.0000000000000000e+00
-3.3333333333333340e-02  1.0000000000000000e+00  0.0000000000000000e+00
-5.0000000000000003e-02  9.7222222222222221e-01  2.9999999999999999e-01
-3.3333333333333340e-02  1.0000000000000000e+00  2.9999999999999999e-01
-5.0000000000000003e-02  1.0000000000000000e+00  1.4999999999999999e-01
-1.6666666666666670e-02  1.0000000000000000e+00  1.4999999999999999e-01
-5.0000000000000003e-02  9.7222222222222221e-01  1.4999999999999999e-01
-3.3333333333333340e-02  1.0000000000000000e+00  1.4999999999999999e-01
1.6666666666666663e-02  1.0000000000000000e+00  0.0000000000000000e+00
1.6666666666666663e-02  1.0000000000000000e+00  2.9999999999999999e-01
-3.4694469519536142e-18  1.0000000000000000e+00  0.0000000000000000e+00
-3.4694469519536142e-18  1.0000000000000000e+00  2.9999999999999999e-01
1.6666666666666663e-02  1.0000000000000000e+00  1.4999999999999999e-01
-3.4694469519536142e-18  1.0000000000000000e+00  1.4999999999999999e-01
5.0000000000000003e-02  1.0000000000000000e+00  0.0000000000000000e+00
5.0000000000000003e-02  1.0000000000000000e+00  2.9999999999999999e-01
5.0000000000000003e-02  9.7222222222222221e-01  0.0000000000000000e+00
3.3333333333333333e-02  1.0000000000000000e+00  0.0000000000000000e+00
5.0000000000000003e-02  9.7222222222222221e-01  2.9999999999999999e-01
3.3333333333333333e-02  1.0000000000000000e+00  2.9999999999999999e-01
5.0000000000000003e-02  1.0000000000000000e+00  1.4999999999999999e-01
5.0000000000000003e-02  9.7222222222222221e-01  1.4999999999999999e-01
3.3333333333333333e-02  1.0000000000000000e+00  1.4999999999999999e-01

CELLS 0 0


CELL_TYPES 0


POINT_DATA 237

VECTORS VertexNormals float

0.0000000000000000e+00 0.0000000000000000e+00 0.0000000000000000e+00 
0.0000000000000000e+00 0.0000000000000000e+00 0.0000000000000000e+00 
0.0000000000000000e+00 0.0000000000000000e+00 0.0000000000000000e+00 
0.0000000000000000e+00 0.0000000000000000e+00 0.0000000000000000e+00 
0.0000000000000000e+00 0.0000000000000000e+00 0.0000000000000000e+00 
0.0000000000000000e+00 0.0000000000000000e+00 0.0000000000000000e+00 
0.0000000000000000e+00 0.0000000000000000e+00 0.0000000000000000e+00 
0.0000000000000000e+00 0.0000000000000000e+00 0.0000000000000000e+00 
0.0000000000000000e+00 0.0000000000000000e+00 0.0000000000000000e+00 
0.0000000000000000e+00 0.0000000000000000e+00 0.0000000000000000e+00 
0.0000000000000000e+00 0.0000000000000000e+00 0.0000000000000000e+00 
0.0000000000000000e+00 0.0000000000000000e+00 0.0000000000000000e+00 
0.0000000000000000e+00 0.0000000000000000e+00 0.0000000000000000e+00 
0.0000000000000000e+00 0.0000000000000000e+00 0.0000000000000000e+00 
0.0000000000000000e+00 0.0000000000000000e+00 0.0000000000000000e+00 
0.0000000000000000e+00 0.0000000000000000e+00 0.0000000000000000e+00 
0.0000000000000000e+00 0.0000000000000000e+00 0.0000000000000000e+00 
0.0000000000000000e+00 0.0000000000000000e+00 0.0000000000000000e+00 
0.0000000000000000e+00 0.0000000000000000e+00 0.0000000000000000e+00 
0.0000000000000000e+00 0.0000000000000000e+00 0.0000000000000000e+00 
0.0000000000000000e+00 0.0000000000000000e+00 0.0000000000000000e+00 
0.0000000000000000e+00 0.0000000000000000e+00 0.0000000000000000e+00 
0.0000000000000000e+00 0.0000000000000000e+00 0.0000000000000000e+00 
0.0000000000000000e+00 0.0000000000000000e+00 0.0000000000000000e+00 
0.0000000000000000e+00 0.0000000000000000e+00 0.0000000000000000e+00 
0.0000000000000000e+00 0.0000000000000000e+00 0.0000000000000000e+00 
0.0000000000000000e+00 0.0000000000000000e+00 0.0000000000000000e+00 
0.0000000000000000e+00 0.0000000000000000e+00 0.0000000000000000e+00 
0.0000000000000000e+00 0.0000000000000000e+00 0.0000000000000000e+00 
0.0000000000000000e+00 0.0000000000000000e+00 0.0000000000000000e+00 
0.0000000000000000e+00 0.0000000000000000e+00 0.0000000000000000e+00 
0.0000000000000000e+00 0.0000000000000000e+00 0.0000000000000000e+00 
0.0000000000000000e+00 0.0000000000000000e+00 0.0000000000000000e+00 
0.0000000000000000e+00 0.0000000000000000e+00 0.0000000000000000e+00 
0.0000000000000000e+00 0.0000000000000000e+00 0.0000000000000000e+00 
0.0000000000000000e+00 0.0000000000000000e+00 0.0000000000000000e+00 
0.0000000000000000e+00 0.0000000000000000e+00 0.0000000000000000e+00 
0.0000000000000000e+00 0.0000000000000000e+00 0.0000000000000000e+00 
0.0000000000000000e+00 0.0000000000000000e+00 0.0000000000000000e+00 
0.0000000000000000e+00 0.0000000000000000e+00 0.0000000000000000e+00 
0.0000000000000000e+00 0.0000000000000000e+00 0.0000000000000000e+00 
0.0000000000000000e+00 0.0000000000000000e+00 0.0000000000000000e+00 
0.0000000000000000e+00 0.0000000000000000e+00 0.0000000000000000e+00 
0.0000000000000000e+00 0.0000000000000000e+00 0.0000000000000000e+00 
0.0000000000000000e+00 0.0000000000000000e+00 0.0000000000000000e+00 
0.0000000000000000e+00 0.0000000000000000e+00 0.0000000000000000e+00 
0.0000000000000000e+00 0.0000000000000000e+00 0.0000000000000000e+00 
0.0000000000000000e+00 0.0000000000000000e+00 0.0000000000000000e+00 
0.0000000000000000e+00 0.0000000000000000e+00 0.0000000000000000e+00 
0.0000000000000000e+00 0.0000000000000000e+00 0.0000000000000000e+00 
0.0000000000000000e+00 0.0000000000000000e+00 0.0000000000000000e+00 
0.0000000000000000e+00 0.0000000000000000e+00 0.0000000000000000e+00 
0.0000000000000000e+00 0.0000000000000000e+00 0.0000000000000000e+00 
0.0000000000000000e+00 0.0000000000000000e+00 0.0000000000000000e+00 
0.0000000000000000e+00 0.0000000000000000e+00 0.0000000000000000e+00 
0.0000000000000000e+00 0.0000000000000000e+00 0.0000000000000000e+00 
0.0000000000000000e+00 0.0000000000000000e+00 0.0000000000000000e+00 
0.0000000000000000e+00 0.0000000000000000e+00 0.0000000000000000e+00 
0.0000000000000000e+00 0.0000000000000000e+00 0.0000000000000000e+00 
0.0000000000000000e+00 0.0000000000000000e+00 0.0000000000000000e+00 
0.0000000000000000e+00 0.0000000000000000e+00 0.0000000000000000e+00 
0.0000000000000000e+00 0.0000000000000000e+00 0.0000000000000000e+00 
0.0000000000000000e+00 0.0000000000000000e+00 0.0000000000000000e+00 
0.0000000000000000e+00 0.0000000000000000e+00 0.0000000000000000e+00 
0.0000000000000000e+00 0.0000000000000000e+00 0.0000000000000000e+00 
0.0000000000000000e+00 0.0000000000000000e+00 0.0000000000000000e+00 
0.0000000000000000e+00 0.0000000000000000e+00 0.0000000000000000e+00 
0.0000000000000000e+00 0.0000000000000000e+00 0.0000000000000000e+00 
0.0000000000000000e+00 0.0000000000000000e+00 0.0000000000000000e+00 
0.0000000000000000e+00 0.0000000000000000e+00 0.0000000000000000e+00 
0.0000000000000000e+00 0.0000000000000000e+00 0.0000000000000000e+00 
0.0000000000000000e+00 0.0000000000000000e+00 0.0000000000000000e+00 
0.0000000000000000e+00 0.0000000000000000e+00 0.0000000000000000e+00 
0.0000000000000000e+00 0.0000000000000000e+00 0.0000000000000000e+00 
0.0000000000000000e+00 0.0000000000000000e+00 0.0000000000000000e+00 
0.0000000000000000e+00 0.0000000000000000e+00 0.0000000000000000e+00 
0.0000000000000000e+00 0.0000000000000000e+00 0.0000000000000000e+00 
0.0000000000000000e+00 0.0000000000000000e+00 0.0000000000000000e+00 
0.0000000000000000e+00 0.0000000000000000e+00 0.0000000000000000e+00 
0.0000000000000000e+00 0.0000000000000000e+00 0.0000000000000000e+00 
0.0000000000000000e+00 0.0000000000000000e+00 0.0000000000000000e+00 
0.0000000000000000e+00 0.0000000000000000e+00 0.0000000000000000e+00 
0.0000000000000000e+00 0.0000000000000000e+00 0.0000000000000000e+00 
0.0000000000000000e+00 0.0000000000000000e+00 0.0000000000000000e+00 
0.0000000000000000e+00 0.0000000000000000e+00 0.0000000000000000e+00 
0.0000000000000000e+00 0.0000000000000000e+00 0.0000000000000000e+00 
0.0000000000000000e+00 0.0000000000000000e+00 0.0000000000000000e+00 
0.0000000000000000e+00 0.0000000000000000e+00 0.0000000000000000e+00 
0.0000000000000000e+00 0.0000000000000000e+00 0.0000000000000000e+00 
0.0000000000000000e+00 0.0000000000000000e+00 0.0000000000000000e+00 
0.0000000000000000e+00 0.0000000000000000e+00 0.0000000000000000e+00 
0.0000000000000000e+00 0.0000000000000000e+00 0.0000000000000000e+00 
0.0000000000000000e+00 0.0000000000000000e+00 0.0000000000000000e+00 
0.0000000000000000e+00 0.0000000000000000e+00 0.0000000000000000e+00 
0.0000000000000000e+00 0.0000000000000000e+00 0.0000000000000000e+00 
0.0000000000000000e+00 0.0000000000000000e+00 0.0000000000000000e+00 
0.0000000000000000e+00 0.0000000000000000e+00 0.0000000000000000e+00 
0.0000000000000000e+00 0.0000000000000000e+00 0.0000000000000000e+00 
0.0000000000000000e+00 0.0000000000000000e+00 0.0000000000000000e+00 
0.0000000000000000e+00 0.0000000000000000e+00 0.0000000000000000e+00 
0.0000000000000000e+00 0.0000000000000000e+00 0.0000000000000000e+00 
0.0000000000000000e+00 0.0000000000000000e+00 0.0000000000000000e+00 
0.0000000000000000e+00 0.0000000000000000e+00 0.0000000000000000e+00 
0.0000000000000000e+00 0.0000000000000000e+00 0.0000000000000000e+00 
0.0000000000000000e+00 0.0000000000000000e+00 0.0000000000000000e+00 
0.0000000000000000e+00 0.0000000000000000e+00 0.0000000000000000e+00 
0.0000000000000000e+00 0.0000000000000000e+00 0.0000000000000000e+00 
0.0000000000000000e+00 0.0000000000000000e+00 0.0000000000000000e+00 
0.0000000000000000e+00 0.0000000000000000e+00 0.0000000000000000e+00 
0.0000000000000000e+00 0.0000000000000000e+00 0.0000000000000000e+00 
0.0000000000000000e+00 0.0000000000000000e+00 0.0000000000000000e+00 
0.0000000000000000e+00 0.0000000000000000e+00 0.0000000000000000e+00 
0.0000000000000000e+00 0.0000000000000000e+00 0.0000000000000000e+00 
0.0000000000000000e+00 0.0000000000000000e+00 0.0000000000000000e+00 
0.0000000000000000e+00 0.0000000000000000e+00 0.0000000000000000e+00 
0.0000000000000000e+00 0.0000000000000000e+00 0.0000000000000000e+00 
0.0000000000000000e+00 0.0000000000000000e+00 0.0000000000000000e+00 
0.0000000000000000e+00 0.0000000000000000e+00 0.0000000000000000e+00 
0.0000000000000000e+00 0.0000000000000000e+00 0.0000000000000000e+00 
0.0000000000000000e+00 0.0000000000000000e+00 0.0000000000000000e+00 
0.0000000000000000e+00 0.0000000000000000e+00 0.0000000000000000e+00 
0.0000000000000000e+00 0.0000000000000000e+00 0.0000000000000000e+00 
0.0000000000000000e+00 0.0000000000000000e+00 0.0000000000000000e+00 
0.0000000000000000e+00 0.0000000000000000e+00 0.0000000000000000e+00 
0.0000000000000000e+00 0.0000000000000000e+00 0.0000000000000000e+00 
0.0000000000000000e+00 0.0000000000000000e+00 0.0000000000000000e+00 
0.0000000000000000e+00 0.0000000000000000e+00 0.0000000000000000e+00 
0.0000000000000000e+00 0.0000000000000000e+00 0.0000000000000000e+00 
0.0000000000000000e+00 0.0000000000000000e+00 0.0000000000000000e+00 
0.0000000000000000e+00 0.0000000000000000e+00 0.0000000000000000e+00 
0.0000000000000000e+00 0.0000000000000000e+00 0.0000000000000000e+00 
0.0000000000000000e+00 0.0000000000000000e+00 0.0000000000000000e+00 
0.0000000000000000e+00 0.0000000000000000e+00 0.0000000000000000e+00 
0.0000000000000000e+00 0.0000000000000000e+00 0.0000000000000000e+00 
0.0000000000000000e+00 0.0000000000000000e+00 0.0000000000000000e+00 
0.0000000000000000e+00 0.0000000000000000e+00 0.0000000000000000e+00 
0.0000000000000000e+00 0.0000000000000000e+00 0.0000000000000000e+00 
0.0000000000000000e+00 0.0000000000000000e+00 0.0000000000000000e+00 
0.0000000000000000e+00 0.0000000000000000e+00 0.0000000000000000e+00 
0.0000000000000000e+00 0.0000000000000000e+00 0.0000000000000000e+00 
0.0000000000000000e+00 0.0000000000000000e+00 0.0000000000000000e+00 
0.0000000000000000e+00 0.0000000000000000e+00 0.0000000000000000e+00 
0.0000000000000000e+00 0.0000000000000000e+00 0.0000000000000000e+00 
0.0000000000000000e+00 0.0000000000000000e+00 0.0000000000000000e+00 
0.0000000000000000e+00 0.0000000000000000e+00 0.0000000000000000e+00 
0.0000000000000000e+00 0.0000000000000000e+00 0.0000000000000000e+00 
0.0000000000000000e+00 0.0000000000000000e+00 0.0000000000000000e+00 
0.0000000000000000e+00 0.0000000000000000e+00 0.0000000000000000e+00 
0.0000000000000000e+00 0.0000000000000000e+00 0.0000000000000000e+00 
0.0000000000000000e+00 0.0000000000000000e+00 0.0000000000000000e+00 
0.0000000000000000e+00 0.0000000000000000e+00 0.0000000000000000e+00 
0.0000000000000000e+00 0.0000000000000000e+00 0.0000000000000000e+00 
0.0000000000000000e+00 0.0000000000000000e+00 0.0000000000000000e+00 
0.0000000000000000e+00 0.0000000000000000e+00 0.0000000000000000e+00 
0.0000000000000000e+00 0.0000000000000000e+00 0.0000000000000000e+00 
0.0000000000000000e+00 0.0000000000000000e+00 0.0000000000000000e+00 
0.0000000000000000e+00 0.0000000000000000e+00 0.0000000000000000e+00 
0.0000000000000000e+00 0.0000000000000000e+00 0.0000000000000000e+00 
0.0000000000000000e+00 0.0000000000000000e+00 0.0000000000000000e+00 
0.0000000000000000e+00 0.0000000000000000e+00 0.0000000000000000e+00 
0.0000000000000000e+00 0.0000000000000000e+00 0.0000000000000000e+00 
0.0000000000000000e+00 0.0000000000000000e+00 0.0000000000000000e+00 
0.0000000000000000e+00 0.0000000000000000e+00 0.0000000000000000e+00 
0.0000000000000000e+00 0.0000000000000000e+00 0.0000000000000000e+00 
0.0000000000000000e+00 0.0000000000000000e+00 0.0000000000000000e+00 
0.0000000000000000e+00 0.0000000000000000e+00 0.0000000000000000e+00 
0.0000000000000000e+00 0.0000000000000000e+00 0.0000000000000000e+00 
0.0000000000000000e+00 0.0000000000000000e+00 0.0000000000000000e+00 
0.0000000000000000e+00 0.0000000000000000e+00 0.0000000000000000e+00 
0.0000000000000000e+00 0.0000000000000000e+00 0.0000000000000000e+00 
0.0000000000000000e+00 0.0000000000000000e+00 0.0000000000000000e+00 
0.0000000000000000e+00 0.0000000000000000e+00 0.0000000000000000e+00 
0.0000000000000000e+00 0.0000000000000000e+00 0.0000000000000000e+00 
0.0000000000000000e+00 0.0000000000000000e+00 0.0000000000000000e+00 
0.0000000000000000e+00 0.0000000000000000e+00 0.0000000000000000e+00 
0.0000000000000000e+00 0.0000000000000000e+00 0.0000000000000000e+00 
0.0000000000000000e+00 0.0000000000000000e+00 0.0000000000000000e+00 
0.0000000000000000e+00 0.0000000000000000e+00 0.0000000000000000e+00 
0.0000000000000000e+00 0.0000000000000000e+00 0.0000000000000000e+00 
0.0000000000000000e+00 0.0000000000000000e+00 0.0000000000000000e+00 
0.0000000000000000e+00 0.0000000000000000e+00 0.0000000000000000e+00 
0.0000000000000000e+00 0.0000000000000000e+00 0.0000000000000000e+00 
0.0000000000000000e+00 0.0000000000000000e+00 0.0000000000000000e+00 
0.0000000000000000e+00 0.0000000000000000e+00 0.0000000000000000e+00 
0.0000000000000000e+00 0.0000000000000000e+00 0.0000000000000000e+00 
0.0000000000000000e+00 0.0000000000000000e+00 0.0000000000000000e+00 
0.0000000000000000e+00 0.0000000000000000e+00 0.0000000000000000e+00 
0.0000000000000000e+00 0.0000000000000000e+00 0.0000000000000000e+00 
0.0000000000000000e+00 0.0000000000000000e+00 0.0000000000000000e+00 
0.0000000000000000e+00 0.0000000000000000e+00 0.0000000000000000e+00 
0.0000000000000000e+00 0.0000000000000000e+00 0.0000000000000000e+00 
0.0000000000000000e+00 0.0000000000000000e+00 0.0000000000000000e+00 
0.0000000000000000e+00 0.0000000000000000e+00 0.0000000000000000e+00 
0.0000000000000000e+00 0.0000000000000000e+00 0.0000000000000000e+00 
0.0000000000000000e+00 0.0000000000000000e+00 0.0000000000000000e+00 
0.0000000000000000e+00 0.0000000000000000e+00 0.0000000000000000e+00 
0.0000000000000000e+00 0.0000000000000000e+00 0.0000000000000000e+00 
0.0000000000000000e+00 0.0000000000000000e+00 0.0000000000000000e+00 
0.0000000000000000e+00 0.0000000000000000e+00 0.0000000000000000e+00 
0.0000000000000000e+00 0.0000000000000000e+00 0.0000000000000000e+00 
0.0000000000000000e+00 0.0000000000000000e+00 0.0000000000000000e+00 
0.0000000000000000e+00 0.0000000000000000e+00 0.0000000000000000e+00 
0.0000000000000000e+00 0.0000000000000000e+00 0.0000000000000000e+00 
0.0000000000000000e+00 0.0000000000000000e+00 0.0000000000000000e+00 
0.0000000000000000e+00 0.0000000000000000e+00 0.0000000000000000e+00 
0.0000000000000000e+00 0.0000000000000000e+00 0.0000000000000000e+00 
0.0000000000000000e+00 0.0000000000000000e+00 0.0000000000000000e+00 
0.0000000000000000e+00 0.0000000000000000e+00 0.0000000000000000e+00 
0.0000000000000000e+00 0.0000000000000000e+00 0.0000000000000000e+00 
0.0000000000000000e+00 0.0000000000000000e+00 0.0000000000000000e+00 
0.0000000000000000e+00 0.0000000000000000e+00 0.0000000000000000e+00 
0.0000000000000000e+00 0.0000000000000000e+00 0.0000000000000000e+00 
0.0000000000000000e+00 0.0000000000000000e+00 0.0000000000000000e+00 
0.0000000000000000e+00 0.0000000000000000e+00 0.0000000000000000e+00 
0.0000000000000000e+00 0.0000000000000000e+00 0.0000000000000000e+00 
0.0000000000000000e+00 0.0000000000000000e+00 0.0000000000000000e+00 
0.0000000000000000e+00 0.0000000000000000e+00 0.0000000000000000e+00 
0.0000000000000000e+00 0.0000000000000000e+00 0.0000000000000000e+00 
0.0000000000000000e+00 0.0000000000000000e+00 0.0000000000000000e+00 
0.0000000000000000e+00 0.0000000000000000e+00 0.0000000000000000e+00 
0.0000000000000000e+00 0.0000000000000000e+00 0.0000000000000000e+00 
0.0000000000000000e+00 0.0000000000000000e+00 0.0000000000000000e+00 
0.0000000000000000e+00 0.0000000000000000e+00 0.0000000000000000e+00 
0.0000000000000000e+00 0.0000000000000000e+00 0.0000000000000000e+00 
0.0000000000000000e+00 0.0000000000000000e+00 0.0000000000000000e+00 
0.0000000000000000e+00 0.0000000000000000e+00 0.0000000000000000e+00 
0.0000000000000000e+00 0.0000000000000000e+00 0.0000000000000000e+00 
0.0000000000000000e+00 0.0000000000000000e+00 0.0000000000000000e+00 
0.0000000000000000e+00 0.0000000000000000e+00 0.0000000000000000e+00 
0.0000000000000000e+00 0.0000000000000000e+00 0.0000000000000000e+00 
0.0000000000000000e+00 0.0000000000000000e+00 0.0000000000000000e+00 
0.0000000000000000e+00 0.0000000000000000e+00 0.0000000000000000e+00 
0.0000000000000000e+00 0.0000000000000000e+00 0.0000000000000000e+00 
0.0000000000000000e+00 0.0000000000000000e+00 0.0000000000000000e+00 
0.0000000000000000e+00 0.0000000000000000e+00 0.0000000000000000e+00 
0.0000000000000000e+00 0.0000000000000000e+00 0.0000000000000000e+00 
0.0000000000000000e+00 0.0000000000000000e+00 0.0000000000000000e+00 

VECTORS Displacement float
0.0000000000000000e+00 0.0000000000000000e+00 0.0000000000000000e+00 
1.9319211743502589e-03 2.4105178417676821e-03 0.0000000000000000e+00 
0.0000000000000000e+00 0.0000000000000000e+00 0.0000000000000000e+00 
1.9318951304496046e-03 2.4105198490539702e-03 0.0000000000000000e+00 
8.0570097930862531e-04 1.2574620016954602e-03 0.0000000000000000e+00 
8.0567983333633343e-04 1.2574574053732736e-03 0.0000000000000000e+00 
0.0000000000000000e+00 0.0000000000000000e+00 0.0000000000000000e+00 
1.9319029545308271e-03 2.4105207935973191e-03 -3.9421111598925297e-09 
8.0569360500369874e-04 1.2574614456212310e-03 -9.2186420121796623e-10 
0.0000000000000000e+00 0.0000000000000000e+00 0.0000000000000000e+00 
1.8783095879198576e-03 -2.4911211659144313e-03 0.0000000000000000e+00 
0.0000000000000000e+00 0.0000000000000000e+00 0.0000000000000000e+00 
1.8782955134571196e-03 -2.4911177603104307e-03 0.0000000000000000e+00 
7.6415060471859140e-04 -1.2781711139066960e-03 0.0000000000000000e+00 
7.6414021864037779e-04 -1.2781699386253619e-03 0.0000000000000000e+00 
0.0000000000000000e+00 0.0000000000000000e+00 0.0000000000000000e+00 
1.8783009932952597e-03 -2.4911246241295275e-03 -8.8877724093555256e-10 
7.6414835894285502e-04 -1.2781705504023308e-03 -2.5074764769607293e-10 
6.2035975776353345e-03 4.4739416763929681e-03 0.0000000000000000e+00 
6.2035888453251566e-03 4.4739593067739947e-03 0.0000000000000000e+00 
3.7461498214120910e-03 3.4931950371089567e-03 0.0000000000000000e+00 
3.7461374871309255e-03 3.4932041354679925e-03 0.0000000000000000e+00 
6.2035948106366080e-03 4.4739441103022913e-03 -3.9915762629769873e-09 
3.7461478338893638e-03 3.4931993320935851e-03 -3.1777603766578607e-09 
6.2294426061547462e-03 -4.6121909649894091e-03 0.0000000000000000e+00 
6.2294443053920005e-03 -4.6122098986826326e-03 0.0000000000000000e+00 
3.7492869348874805e-03 -3.6227319852682304e-03 0.0000000000000000e+00 
3.7492684988140097e-03 -3.6227391816598753e-03 0.0000000000000000e+00 
6.2294391585365292e-03 -4.6121998736352631e-03 -9.3045287389139012e-10 
3.7492835676569492e-03 -3.6227328921402103e-03 1.9067356835278701e-09 
1.2478869193207232e-02 6.0330363504501328e-03 0.0000000000000000e+00 
1.2478866941839795e-02 6.0330471437846818e-03 0.0000000000000000e+00 
9.1686431898685417e-03 5.3037177890930967e-03 0.0000000000000000e+00 
9.1686504640109880e-03 5.3037275539972043e-03 0.0000000000000000e+00 
1.2478875207566718e-02 6.0330348814557127e-03 -2.2288713822491896e-09 
9.1686484715072514e-03 5.3037237253899258e-03 -9.1107841399982407e-11 
1.2433140922186347e-02 -6.1617396392469118e-03 0.0000000000000000e+00 
1.2433154293161544e-02 -6.1617335006464245e-03 0.0000000000000000e+00 
9.1512531373737910e-03 -5.4382241233424996e-03 0.0000000000000000e+00 
9.1512714604120825e-03 -5.4382248559460547e-03 0.0000000000000000e+00 
1.2433145773255248e-02 -6.1617423215563020e-03 -2.3589025266333969e-09 
9.1512601573781431e-03 -5.4382258319151354e-03 -7.1317949872159449e-10 
2.0134589552049033e-02 7.3878148892000161e-03 0.0000000000000000e+00 
2.0134586142899681e-02 7.3878207925264783e-03 0.0000000000000000e+00 
1.6131645720529497e-02 6.7132953727950355e-03 0.0000000000000000e+00 
1.6131644871466712e-02 6.7133003800774957e-03 0.0000000000000000e+00 
2.0134585490118699e-02 7.3878129824726515e-03 -2.4624509976681983e-09 
1.6131650938544705e-02 6.7132952427765595e-03 1.3442259587833529e-10 
2.0155864220123405e-02 -7.3664233123828310e-03 0.0000000000000000e+00 
2.0155874118703405e-02 -7.3664264144402015e-03 0.0000000000000000e+00 
1.6124590100587893e-02 -6.7909963236558839e-03 0.0000000000000000e+00 
1.6124582928901808e-02 -6.7909892723098404e-03 0.0000000000000000e+00 
2.0155880114388895e-02 -7.3664272818972556e-03 -3.2508386254898811e-09 
1.6124592201180572e-02 -6.7909960447119968e-03 -7.6040518400378205e-10 
2.9275685783270916e-02 8.5397954933913670e-03 0.0000000000000000e+00 
2.9275666682192752e-02 8.5397934098107170e-03 0.0000000000000000e+00 
2.4516702232495087e-02 8.0180921492737471e-03 0.0000000000000000e+00 
2.4516694228346340e-02 8.0180914312855331e-03 0.0000000000000000e+00 
2.9275676111823676e-02 8.5397978323629269e-03 -4.0923015395584748e-09 
2.4516696993831140e-02 8.0180932886721110e-03 -1.3336198041073946e-09 
2.9188279609668001e-02 -8.4138776473789458e-03 0.0000000000000000e+00 
2.9188277555642520e-02 -8.4138648398141488e-03 0.0000000000000000e+00 
2.4485247653540706e-02 -7.9129893561576681e-03 0.0000000000000000e+00 
2.4485257467632519e-02 -7.9129773969712717e-03 0.0000000000000000e+00 
2.9188279864484058e-02 -8.4138766951885151e-03 -2.0941766249465898e-09 
2.4485256572724424e-02 -7.9129828279123973e-03 -6.6608597973583264e-10 
3.9377581474066989e-02 9.2214490252298907e-03 0.0000000000000000e+00 
3.9377568698060833e-02 9.2214521116738644e-03 0.0000000000000000e+00 
3.4239335601764988e-02 8.9234218212112769e-03 0.0000000000000000e+00 
3.4239331660558397e-02 8.9234226827516021e-03 0.0000000000000000e+00 
3.9377575793879155e-02 9.2214533232999642e-03 -4.9000222992224367e-09 
3.4239334344397146e-02 8.9234262954914299e-03 -3.5139883362230195e-09 
3.9369350211164694e-02 -9.0821230843182599e-03 0.0000000000000000e+00 
3.9369355400187947e-02 -9.0821238277373484e-03 0.0000000000000000e+00 
3.4177378402104996e-02 -8.8118590833574564e-03 0.0000000000000000e+00 
3.4177372094432668e-02 -8.8118489791418377e-03 0.0000000000000000e+00 
3.9369351458890520e-02 -9.0821303246830694e-03 -1.2337246521306301e-09 
3.4177373132057640e-02 -8.8118526228273160e-03 -3.5062842123986200e-10 
4.9999313138094560e-02 9.5840705095039322e-03 0.0000000000000000e+00 
4.9999302973473408e-02 9.5840658855322145e-03 0.0000000000000000e+00 
4.4672836038942121e-02 9.4332659040049366e-03 0.0000000000000000e+00 
4.4672834847125906e-02 9.4332648078749269e-03 0.0000000000000000e+00 
4.9999307691273177e-02 9.5840603091868273e-03 -4.8292266182692566e-09 
4.4672840987323659e-02 9.4332647892377466e-03 -3.9009152708213188e-09 
4.9918215918009490e-02 -9.2738219324299074e-03 0.0000000000000000e+00 
4.9918223860389591e-02 -9.2738105687631411e-03 0.0000000000000000e+00 
4.4643971001328220e-02 -9.2093912528374740e-03 0.0000000000000000e+00 
4.4643976966798671e-02 -9.2093837090225054e-03 0.0000000000000000e+00 
4.9918227456022868e-02 -9.2738073380006225e-03 -4.2477063715919949e-09 
4.4643980740338401e-02 -9.2093833883886561e-03 -1.5171921373415648e-09 
6.0613481876739719e-02 9.7209324178994250e-03 0.0000000000000000e+00 
6.0613470646494638e-02 9.7209314798575724e-03 0.0000000000000000e+00 
5.5316120417362058e-02 9.6734406359299356e-03 0.0000000000000000e+00 
5.5316112835856510e-02 9.6734367949900344e-03 0.0000000000000000e+00 
6.0613472684617170e-02 9.7209323720272613e-03 -5.1616796076960799e-09 
5.5316111041452475e-02 9.6734379057635423e-03 -5.4847651772107113e-09 
6.0609655056410972e-02 -9.2995212933839090e-03 0.0000000000000000e+00 
6.0609660346445410e-02 -9.2995251801146483e-03 0.0000000000000000e+00 
5.5246231955812672e-02 -9.3068083118977608e-03 0.0000000000000000e+00 
5.5246224737841423e-02 -9.3067983904116976e-03 0.0000000000000000e+00 
6.0609648077369994e-02 -9.2995265957483073e-03 -2.9836955682526416e-09 
5.5246222066669889e-02 -9.3067926534060319e-03 -8.0729534952389269e-10 
7.1331474322049462e-02 9.7873120311874548e-03 0.0000000000000000e+00 
7.1331466145969163e-02 9.7873056165437879e-03 0.0000000000000000e+00 
6.5947943092754008e-02 9.7647053366455468e-03 0.0000000000000000e+00 
6.5947942871533577e-02 9.7647023871167381e-03 0.0000000000000000e+00 
7.1331465777379754e-02 9.7873072931752222e-03 -4.0394169496220913e-09 
6.5947941796281384e-02 9.7647036506509806e-03 -3.1671335764228519e-09 
7.1213438207605131e-02 -9.2193944683060091e-03 0.0000000000000000e+00 
7.1213446704133376e-02 -9.2193943702049280e-03 0.0000000000000000e+00 
6.5938671464964349e-02 -9.2581194735326701e-03 0.0000000000000000e+00 
6.5938678944347545e-02 -9.2581189639184373e-03 0.0000000000000000e+00 
7.1213447921650436e-02 -9.2193951805855882e-03 -5.5429097801965663e-09 
6.5938679852466486e-02 -9.2581188180845368e-03 -2.5414390107615130e-09 
8.1882733162584542e-02 9.6821865994049794e-03 0.0000000000000000e+00 
8.1882720078651411e-02 9.6821800142718462e-03 0.0000000000000000e+00 
7.6662104722056618e-02 9.7513030477501678e-03 0.0000000000000000e+00 
7.6662102949618546e-02 9.7512944421460426e-03 0.0000000000000000e+00 
8.1882731059501807e-02 9.6821830736298665e-03 -3.1403065406103296e-09 
7.6662102574024352e-02 9.7513012796105088e-03 -3.1160600304358721e-09 
8.1846647742742445e-02 -9.0833915308949353e-03 0.0000000000000000e+00 
8.1846657833147096e-02 -9.0833953792049879e-03 0.0000000000000000e+00 
7.6513672617965073e-02 -9.1833238661661216e-03 0.0000000000000000e+00 
7.6513672886058981e-02 -9.1833205208485050e-03 0.0000000000000000e+00 
8.1846659929475374e-02 -9.0833960940558556e-03 -6.6915628314146803e-09 
7.6513676139945974e-02 -9.1833209329851440e-03 -4.7475186306095962e-09 
9.2160941094490328e-02 9.5001236290179897e-03 0.0000000000000000e+00 
9.2160939122041763e-02 9.5001045646135561e-03 0.0000000000000000e+00 
8.7035009277256284e-02 9.6054599851971793e-03 0.0000000000000000e+00 
8.7035015788118675e-02 9.6054499532604483e-03 0.0000000000000000e+00 
9.2160939320687987e-02 9.5001138235106461e-03 -1.0083346427928864e-09 
8.7035016332801862e-02 9.6054549221195919e-03 -4.2661631597395455e-10 
9.2137965725790749e-02 -8.6611204170772733e-03 0.0000000000000000e+00 
9.2137984182829313e-02 -8.6611130120206291e-03 0.0000000000000000e+00 
8.7073326725396791e-02 -8.8868834845342963e-03 0.0000000000000000e+00 
8.7073343675390102e-02 -8.8868800397736217e-03 0.0000000000000000e+00 
9.2137979907333106e-02 -8.6611138930614284e-03 -6.2298982204343249e-09 
8.7073344578887740e-02 -8.8868770268560396e-03 -5.1468700328823389e-09 
1.0201263753506976e-01 9.1339330230954894e-03 0.0000000000000000e+00 
1.0201261998669672e-01 9.1339190147571407e-03 0.0000000000000000e+00 
9.7187083561352805e-02 9.3258244437261269e-03 0.0000000000000000e+00 
9.7187077724752921e-02 9.3258065003788970e-03 0.0000000000000000e+00 
1.0201262282073506e-01 9.1339298896351041e-03 -1.8188481693050644e-09 
9.7187077225838914e-02 9.3258196409634619e-03 -7.4631059432567300e-10 
1.0191556667353005e-01 -8.2362205003029265e-03 0.0000000000000000e+00 
1.0191556562828447e-01 -8.2362177277716733e-03 0.0000000000000000e+00 
9.7088071499166345e-02 -8.4405019954888038e-03 0.0000000000000000e+00 
9.7088075617415809e-02 -8.4404919588613788e-03 0.0000000000000000e+00 
1.0191556421636686e-01 -8.2362221352169449e-03 -4.3214810109527231e-09 
9.7088074352477197e-02 -8.4404922928782936e-03 -4.0877875694454173e-09 
1.1126209860585666e-01 8.9424255756144003e-03 0.0000000000000000e+00 
1.1126207652537046e-01 8.9424244507143348e-03 0.0000000000000000e+00 
1.0667267814735149e-01 9.0015371857581766e-03 0.0000000000000000e+00 
1.0667266263940525e-01 9.0015315781589202e-03 0.0000000000000000e+00 
1.1126209166999693e-01 8.9424233449374047e-03 -3.2567621842277450e-09 
1.0667267054968844e-01 9.0015386027004173e-03 -1.9905305723722043e-09 
1.1124505795732390e-01 -7.9575164815712876e-03 0.0000000000000000e+00 
1.1124505247721460e-01 -7.9575152829140221e-03 0.0000000000000000e+00 
1.0662331868637211e-01 -8.0699391040755207e-03 0.0000000000000000e+00 
1.0662330918770629e-01 -8.0699370159657609e-03 0.0000000000000000e+00 
1.1124505756455189e-01 -7.9575118751431164e-03 -1.1262943953197579e-09 
1.0662331713484438e-01 -8.0699372842194875e-03 -1.0867717609283851e-09 
1.2054418547571863e-01 9.0686714135047378e-03 0.0000000000000000e+00 
1.2054417556766142e-01 9.0686740547059885e-03 0.0000000000000000e+00 
1.1587535211015332e-01 8.9699274985530278e-03 0.0000000000000000e+00 
1.1587534224855803e-01 8.9699284949231548e-03 0.0000000000000000e+00 
1.2054417356665416e-01 9.0686704575518098e-03 -3.4487549675689324e-09 
1.1587534621227327e-01 8.9699245770914308e-03 -2.3811325388229987e-09 
1.2047644882380432e-01 -8.0085197175021518e-03 0.0000000000000000e+00 
1.2047645340325742e-01 -8.0085243663226991e-03 0.0000000000000000e+00 
1.1582858195506851e-01 -7.9428849199601973e-03 0.0000000000000000e+00 
1.1582857280788680e-01 -7.9428866296649137e-03 0.0000000000000000e+00 
1.2047644251251660e-01 -8.0085184336769945e-03 1.1743877986039559e-10 
1.1582857391044715e-01 -7.9428743347147272e-03 1.7496999528169188e-09 
1.3016834571114982e-01 9.3632793784316163e-03 0.0000000000000000e+00 
1.3016835755431183e-01 9.3632791273235930e-03 0.0000000000000000e+00 
1.2530314809822268e-01 9.2134390620470588e-03 0.0000000000000000e+00 
1.2530315804312137e-01 9.2134401481188608e-03 0.0000000000000000e+00 
1.3016835038685429e-01 9.3632796746735553e-03 -2.7947212847313477e-09 
1.2530314438718276e-01 9.2134424951408680e-03 -2.6367542571161200e-09 
1.3017080442937332e-01 -8.1708221161349813e-03 0.0000000000000000e+00 
1.3017082454421733e-01 -8.1708203261608194e-03 0.0000000000000000e+00 
1.2527778773135512e-01 -8.1003175443889099e-03 0.0000000000000000e+00 
1.2527779883059970e-01 -8.1003202811789944e-03 0.0000000000000000e+00 
1.3017081685439424e-01 -8.1708225366329146e-03 5.6359633216238339e-10 
1.2527779066307312e-01 -8.1003191368663359e-03 2.6098167588329135e-09 
1.4013872571578662e-01 9.6354497384534867e-03 0.0000000000000000e+00 
1.4013873049005904e-01 9.6354345977127769e-03 0.0000000000000000e+00 
1.3510345134206511e-01 9.5073254670806004e-03 0.0000000000000000e+00 
1.3510347115641030e-01 9.5073218459923742e-03 0.0000000000000000e+00 
1.4013872676198172e-01 9.6354399553141151e-03 1.0781192303599891e-09 
1.3510345915567357e-01 9.5073234444334846e-03 3.6149958002598622e-10 
1.4003790161262092e-01 -8.3751235536465331e-03 0.0000000000000000e+00 
1.4003790753846462e-01 -8.3751128226882861e-03 0.0000000000000000e+00 
1.3506816721212522e-01 -8.2538171314587450e-03 0.0000000000000000e+00 
1.3506818123391728e-01 -8.2538053673859874e-03 0.0000000000000000e+00 
1.4003790358671908e-01 -8.3751126398425389e-03 -8.7128533837857671e-10 
1.3506817641090635e-01 -8.2538064174042733e-03 1.6371569830744512e-09 
1.5030082718116805e-01 9.7944926448766279e-03 0.0000000000000000e+00 
1.5030082412942694e-01 9.7944843742796672e-03 0.0000000000000000e+00 
1.4521335297459145e-01 9.7264770309367869e-03 0.0000000000000000e+00 
1.4521335301886928e-01 9.7264713665339876e-03 0.0000000000000000e+00 
1.5030081937065504e-01 9.7944832213364107e-03 2.8381487974998977e-09 
1.4521335753481027e-01 9.7264693192265321e-03 2.4193960392873329e-09 
1.5029029231882512e-01 -8.5364554110549801e-03 0.0000000000000000e+00 
1.5029029401725735e-01 -8.5364481708817223e-03 0.0000000000000000e+00 
1.4513545863602539e-01 -8.4798344506909658e-03 0.0000000000000000e+00 
1.4513545695999411e-01 -8.4798211115718648e-03 0.0000000000000000e+00 
1.5029029289718671e-01 -8.5364457910603285e-03 -5.6642093815879812e-09 
1.4513545206352441e-01 -8.4798254106650955e-03 -1.8910981651508151e-09 
1.6065606973188268e-01 9.8981846611775250e-03 0.0000000000000000e+00 
1.6057801046764297e-01 3.6918886346700994e-03 0.0000000000000000e+00 
1.6065607615229721e-01 9.8981840474625486e-03 0.0000000000000000e+00 
1.6057801982000036e-01 3.6918892625982928e-03 0.0000000000000000e+00 
1.5545413758777243e-01 9.8578146036925260e-03 0.0000000000000000e+00 
1.6062891918497157e-01 6.7800266550844066e-03 0.0000000000000000e+00 
1.5545414464242929e-01 9.8578111407798402e-03 0.0000000000000000e+00 
1.6062892763162845e-01 6.7800214910427922e-03 0.0000000000000000e+00 
1.6065605668202143e-01 9.8981732450579268e-03 3.1019604205925381e-09 
1.6057800786967846e-01 3.6918838535641109e-03 1.6491778643780526e-09 
1.5545412693011812e-01 9.8578064748127622e-03 1.1047480353153311e-09 
1.6062890652162828e-01 6.7800166691039457e-03 2.3535101645465130e-09 
1.6050404100092741e-01 -2.4417614277333320e-03 0.0000000000000000e+00 
1.6050405174686055e-01 -2.4417523008525609e-03 0.0000000000000000e+00 
1.6053238254829605e-01 6.1824904205395924e-04 0.0000000000000000e+00 
1.6053239204675243e-01 6.1825437352470579e-04 0.0000000000000000e+00 
1.6050405065034029e-01 -2.4417588091174007e-03 -3.7470797430077473e-09 
1.6053238594073410e-01 6.1824875988134660e-04 -2.1467827584464739e-09 
1.6050337797921790e-01 -8.5291737542331700e-03 0.0000000000000000e+00 
1.6050339848944448e-01 -8.5291737667418273e-03 0.0000000000000000e+00 
1.5541530531531916e-01 -8.5378974540602885e-03 0.0000000000000000e+00 
1.6049931271588913e-01 -5.4858365177854794e-03 0.0000000000000000e+00 
1.5541530879736484e-01 -8.5378925931111748e-03 0.0000000000000000e+00 
1.6049932916482812e-01 -5.4858312546072450e-03 0.0000000000000000e+00 
1.6050339652400070e-01 -8.5291659282056721e-03 -7.0279875696156265e-09 
1.5541531335442460e-01 -8.5378868949935564e-03 -5.0713457732088795e-09 
1.6049932749779705e-01 -5.4858305688920183e-03 -6.1082382443711301e-09 

VECTORS Stress float
1.2382771939722129e+02 -4.0731103524219208e+00 2.3680525439121632e-12 
1.2441213785188825e+02 -6.3372040604782569e+00 3.0918721107593101e-12 
1.2382771939722129e+02 -4.0731103524219208e+00 2.3680525439121632e-12 
1.2441213785188825e+02 -6.3372040604782569e+00 3.0918721107593101e-12 
1.2433367039549475e+02 -4.3838305941652607e+00 2.6256460816495607e-12 
1.2433367039549475e+02 -4.3838305941652607e+00 2.6256460816495607e-12 
1.2382771939722129e+02 -4.0731103524219208e+00 2.3680525439121632e-12 
1.2441213785188825e+02 -6.3372040604782569e+00 3.0918721107593101e-12 
1.2433367039549475e+02 -4.3838305941652607e+00 2.6256460816495607e-12 
2.7310809799293452e+01 -9.2135534944429764e-01 -7.8468488989409156e-13 
2.5142842854889523e+01 -1.3441330105403040e+00 -1.0943409311701539e-12 
2.7310809799293452e+01 -9.2135534944429764e-01 -7.8468488989409156e-13 
2.5142842854889523e+01 -1.3441330105403040e+00 -1.0943409311701539e-12 
2.5683167838122813e+01 -9.5725244621650063e-01 -8.8743641740168253e-13 
2.5683167838122813e+01 -9.5725244621650063e-01 -8.8743641740168253e-13 
2.7310809799293452e+01 -9.2135534944429764e-01 -7.8468488989409156e-13 
2.5142842854889523e+01 -1.3441330105403040e+00 -1.0943409311701539e-12 
2.5683167838122813e+01 -9.5725244621650063e-01 -8.8743641740168253e-13 
1.2428074718232756e+02 -1.1637433089644674e+01 3.0546114376983118e-12 
1.2428074718232756e+02 -1.1637433089644674e+01 3.0546114376983118e-12 
1.2435911239620100e+02 -9.1266582469146442e+00 3.4762703455038060e-12 
1.2435911239620100e+02 -9.1266582469146442e+00 3.4762703455038060e-12 
1.2428074718232756e+02 -1.1637433089644674e+01 3.0546114376983118e-12 
1.2435911239620100e+02 -9.1266582469146442e+00 3.4762703455038060e-12 
2.5202994069749479e+01 -2.5344209761667571e+00 -1.2318302448660132e-12 
2.5202994069749479e+01 -2.5344209761667571e+00 -1.2318302448660132e-12 
2.5139085626245105e+01 -1.9546034840749371e+00 -1.3260356156964462e-12 
2.5139085626245105e+01 -1.9546034840749371e+00 -1.3260356156964462e-12 
2.5202994069749479e+01 -2.5344209761667571e+00 -1.2318302448660132e-12 
2.5139085626245105e+01 -1.9546034840749371e+00 -1.3260356156964462e-12 
1.2399013096030285e+02 -1.5131890439743074e+01 3.4766480681773257e-13 
1.2399013096030285e+02 -1.5131890439743074e+01 3.4766480681773257e-13 
1.2413292071111482e+02 -1.3490962523184180e+01 1.6865775315922067e-12 
1.2413292071111482e+02 -1.3490962523184180e+01 1.6865775315922067e-12 
1.2399013096030285e+02 -1.5131890439743074e+01 3.4766480681773257e-13 
1.2413292071111482e+02 -1.3490962523184180e+01 1.6865775315922067e-12 
2.5198424486481144e+01 -3.2083224313003029e+00 -1.3199360446929985e-13 
2.5198424486481144e+01 -3.2083224313003029e+00 -1.3199360446929985e-13 
2.5217833571451365e+01 -2.9173697926505611e+00 -6.9433381332266839e-13 
2.5217833571451365e+01 -2.9173697926505611e+00 -6.9433381332266839e-13 
2.5198424486481144e+01 -3.2083224313003029e+00 -1.3199360446929985e-13 
2.5217833571451365e+01 -2.9173697926505611e+00 -6.9433381332266839e-13 
1.2321541587666593e+02 -1.8205702900608685e+01 -5.3371647063220632e-13 
1.2321541587666593e+02 -1.8205702900608685e+01 -5.3371647063220632e-13 
1.2361934536589865e+02 -1.6694329344789821e+01 -2.6221671045423592e-13 
1.2361934536589865e+02 -1.6694329344789821e+01 -2.6221671045423592e-13 
1.2321541587666593e+02 -1.8205702900608685e+01 -5.3371647063220632e-13 
1.2361934536589865e+02 -1.6694329344789821e+01 -2.6221671045423592e-13 
2.5622935811813477e+01 -3.8894942445117522e+00 5.1328734601338952e-13 
2.5622935811813477e+01 -3.8894942445117522e+00 5.1328734601338952e-13 
2.5407068196004047e+01 -3.5611088811915579e+00 2.3178946248949612e-13 
2.5407068196004047e+01 -3.5611088811915579e+00 2.3178946248949612e-13 
2.5622935811813477e+01 -3.8894942445117522e+00 5.1328734601338952e-13 
2.5407068196004047e+01 -3.5611088811915579e+00 2.3178946248949612e-13 
1.2184074980086666e+02 -2.0741199075531313e+01 -4.4682435889698624e-13 
1.2184074980086666e+02 -2.0741199075531313e+01 -4.4682435889698624e-13 
1.2260208206647189e+02 -1.9561186676740817e+01 -5.7811630534296097e-13 
1.2260208206647189e+02 -1.9561186676740817e+01 -5.7811630534296097e-13 
1.2184074980086666e+02 -2.0741199075531313e+01 -4.4682435889698624e-13 
1.2260208206647189e+02 -1.9561186676740817e+01 -5.7811630534296097e-13 
2.6443537727685225e+01 -4.6314047181424485e+00 4.2670781089463252e-13 
2.6443537727685225e+01 -4.6314047181424485e+00 4.2670781089463252e-13 
2.5983461380578547e+01 -4.2666906458157428e+00 5.6237646891073441e-13 
2.5983461380578547e+01 -4.2666906458157428e+00 5.6237646891073441e-13 
2.6443537727685225e+01 -4.6314047181424485e+00 4.2670781089463252e-13 
2.5983461380578547e+01 -4.2666906458157428e+00 5.6237646891073441e-13 
1.1999125234588337e+02 -2.2177003533116476e+01 5.9991262637841280e-13 
1.1999125234588337e+02 -2.2177003533116476e+01 5.9991262637841280e-13 
1.2101508069642932e+02 -2.1669344562552396e+01 -9.2472910248818647e-14 
1.2101508069642932e+02 -2.1669344562552396e+01 -9.2472910248818647e-14 
1.1999125234588337e+02 -2.2177003533116476e+01 5.9991262637841280e-13 
1.2101508069642932e+02 -2.1669344562552396e+01 -9.2472910248818647e-14 
2.7748358388064617e+01 -5.1832610290036882e+00 -8.4002394445099108e-14 
2.7748358388064617e+01 -5.1832610290036882e+00 -8.4002394445099108e-14 
2.6974734739696032e+01 -4.9165717648509144e+00 2.2314744244734306e-13 
2.6974734739696032e+01 -4.9165717648509144e+00 2.2314744244734306e-13 
2.7748358388064617e+01 -5.1832610290036882e+00 -8.4002394445099108e-14 
2.6974734739696032e+01 -4.9165717648509144e+00 2.2314744244734306e-13 
1.1779432787764267e+02 -2.2366906153004493e+01 1.8088420071615829e-12 
1.1779432787764267e+02 -2.2366906153004493e+01 1.8088420071615829e-12 
1.1897203756835825e+02 -2.2454680918623581e+01 1.3210163087640596e-12 
1.1897203756835825e+02 -2.2454680918623581e+01 1.3210163087640596e-12 
1.1779432787764267e+02 -2.2366906153004493e+01 1.8088420071615829e-12 
1.1897203756835825e+02 -2.2454680918623581e+01 1.3210163087640596e-12 
2.9544679922934392e+01 -5.5682647397227356e+00 -7.2377576863830694e-13 
2.9544679922934392e+01 -5.5682647397227356e+00 -7.2377576863830694e-13 
2.8546446173007553e+01 -5.3411045382836164e+00 -4.1296906389337874e-13 
2.8546446173007553e+01 -5.3411045382836164e+00 -4.1296906389337874e-13 
2.9544679922934392e+01 -5.5682647397227356e+00 -7.2377576863830694e-13 
2.8546446173007553e+01 -5.3411045382836164e+00 -4.1296906389337874e-13 
1.1518099869959815e+02 -2.1885066947225596e+01 1.9647277568340008e-12 
1.1518099869959815e+02 -2.1885066947225596e+01 1.9647277568340008e-12 
1.1655801447206341e+02 -2.2117919511996206e+01 2.0803418858005218e-12 
1.1655801447206341e+02 -2.2117919511996206e+01 2.0803418858005218e-12 
1.1518099869959815e+02 -2.1885066947225596e+01 1.9647277568340008e-12 
1.1655801447206341e+02 -2.2117919511996206e+01 2.0803418858005218e-12 
3.1727514539564936e+01 -5.9760710697864852e+00 -9.4102057874614983e-13 
3.1727514539564936e+01 -5.9760710697864852e+00 -9.4102057874614983e-13 
3.0596337279590898e+01 -5.7780147557859891e+00 -9.8324026348154543e-13 
3.0596337279590898e+01 -5.7780147557859891e+00 -9.8324026348154543e-13 
3.1727514539564936e+01 -5.9760710697864852e+00 -9.4102057874614983e-13 
3.0596337279590898e+01 -5.7780147557859891e+00 -9.8324026348154543e-13 
1.1196689859030221e+02 -2.1415727191328870e+01 6.7675184517909625e-13 
1.1196689859030221e+02 -2.1415727191328870e+01 6.7675184517909625e-13 
1.1360002317056683e+02 -2.1689356438592313e+01 1.4052843997988044e-12 
1.1360002317056683e+02 -2.1689356438592313e+01 1.4052843997988044e-12 
1.1196689859030221e+02 -2.1415727191328870e+01 6.7675184517909625e-13 
1.1360002317056683e+02 -2.1689356438592313e+01 1.4052843997988044e-12 
3.4188557067935790e+01 -6.3572684546893470e+00 2.8116723589802916e-13 
3.4188557067935790e+01 -6.3572684546893470e+00 2.8116723589802916e-13 
3.2973520081866582e+01 -6.1890434705608186e+00 -4.6934252668931641e-13 
3.2973520081866582e+01 -6.1890434705608186e+00 -4.6934252668931641e-13 
3.4188557067935790e+01 -6.3572684546893470e+00 2.8116723589802916e-13 
3.2973520081866582e+01 -6.1890434705608186e+00 -4.6934252668931641e-13 
1.0831325237557098e+02 -2.0166471947530226e+01 -1.2253433939169255e-12 
1.0831325237557098e+02 -2.0166471947530226e+01 -1.2253433939169255e-12 
1.1017518620937653e+02 -2.0843401032316706e+01 -2.7536739499375347e-13 
1.1017518620937653e+02 -2.0843401032316706e+01 -2.7536739499375347e-13 
1.0831325237557098e+02 -2.0166471947530226e+01 -1.2253433939169255e-12 
1.1017518620937653e+02 -2.0843401032316706e+01 -2.7536739499375347e-13 
3.6753634014198042e+01 -6.7567345274985655e+00 2.7301641467181150e-12 
3.6753634014198042e+01 -6.7567345274985655e+00 2.7301641467181150e-12 
3.5489849940252725e+01 -6.5905521827521625e+00 1.5140845582519253e-12 
3.5489849940252725e+01 -6.5905521827521625e+00 1.5140845582519253e-12 
3.6753634014198042e+01 -6.7567345274985655e+00 2.7301641467181150e-12 
3.5489849940252725e+01 -6.5905521827521625e+00 1.5140845582519253e-12 
1.0406332586170697e+02 -1.8784596775045884e+01 -1.7963010923740702e-12 
1.0406332586170697e+02 -1.8784596775045884e+01 -1.7963010923740702e-12 
1.0627150445300344e+02 -1.9483061268961137e+01 -1.7311406742885894e-12 
1.0627150445300344e+02 -1.9483061268961137e+01 -1.7311406742885894e-12 
1.0406332586170697e+02 -1.8784596775045884e+01 -1.7963010923740702e-12 
1.0627150445300344e+02 -1.9483061268961137e+01 -1.7311406742885894e-12 
3.9408475282318250e+01 -6.9159194195465261e+00 2.8306784543148913e-12 
3.9408475282318250e+01 -6.9159194195465261e+00 2.8306784543148913e-12 
3.8073307396418613e+01 -6.8682579438332141e+00 3.1540235599315193e-12 
3.8073307396418613e+01 -6.8682579438332141e+00 3.1540235599315193e-12 
3.9408475282318250e+01 -6.9159194195465261e+00 2.8306784543148913e-12 
3.8073307396418613e+01 -6.8682579438332141e+00 3.1540235599315193e-12 
9.9279924725712249e+01 -1.6951405999113604e+01 -6.9599887867310159e-14 
9.9279924725712249e+01 -1.6951405999113604e+01 -6.9599887867310159e-14 
1.0175105412467451e+02 -1.7968417505047228e+01 -1.3585759650253377e-12 
1.0175105412467451e+02 -1.7968417505047228e+01 -1.3585759650253377e-12 
9.9279924725712249e+01 -1.6951405999113604e+01 -6.9599887867310159e-14 
1.0175105412467451e+02 -1.7968417505047228e+01 -1.3585759650253377e-12 
4.1933874346757648e+01 -6.9689770693455557e+00 3.8498127218346311e-13 
4.1933874346757648e+01 -6.9689770693455557e+00 3.8498127218346311e-13 
4.0685147596358206e+01 -6.9197572661721551e+00 1.9672767996881713e-12 
4.0685147596358206e+01 -6.9197572661721551e+00 1.9672767996881713e-12 
4.1933874346757648e+01 -6.9689770693455557e+00 3.8498127218346311e-13 
4.0685147596358206e+01 -6.9197572661721551e+00 1.9672767996881713e-12 
9.3405963591353498e+01 -1.5221688331213954e+01 2.3190888518497282e-12 
9.3405963591353498e+01 -1.5221688331213954e+01 2.3190888518497282e-12 
9.6568518798456580e+01 -1.5960243414564502e+01 1.3474087395276243e-12 
9.6568518798456580e+01 -1.5960243414564502e+01 1.3474087395276243e-12 
9.3405963591353498e+01 -1.5221688331213954e+01 2.3190888518497282e-12 
9.6568518798456580e+01 -1.5960243414564502e+01 1.3474087395276243e-12 
4.4013389464900001e+01 -7.1164410710047150e+00 -2.0106512967945871e-12 
4.4013389464900001e+01 -7.1164410710047150e+00 -2.0106512967945871e-12 
4.3033962959237897e+01 -7.0050714897879516e+00 -1.1696130379424714e-12 
4.3033962959237897e+01 -7.0050714897879516e+00 -1.1696130379424714e-12 
4.4013389464900001e+01 -7.1164410710047150e+00 -2.0106512967945871e-12 
4.3033962959237897e+01 -7.0050714897879516e+00 -1.1696130379424714e-12 
8.5687216351221309e+01 -1.4345243740820251e+01 2.8700460547291770e-12 
8.5687216351221309e+01 -1.4345243740820251e+01 2.8700460547291770e-12 
8.9797513202506480e+01 -1.4670565851683477e+01 2.9162069707314476e-12 
8.9797513202506480e+01 -1.4670565851683477e+01 2.9162069707314476e-12 
8.5687216351221309e+01 -1.4345243740820251e+01 2.8700460547291770e-12 
8.9797513202506480e+01 -1.4670565851683477e+01 2.9162069707314476e-12 
4.5498494850907264e+01 -7.6338390997108263e+00 -2.4585909094429788e-12 
4.5498494850907264e+01 -7.6338390997108263e+00 -2.4585909094429788e-12 
4.4814908019811696e+01 -7.2820708457219325e+00 -2.4177144963735970e-12 
4.4814908019811696e+01 -7.2820708457219325e+00 -2.4177144963735970e-12 
4.5498494850907264e+01 -7.6338390997108263e+00 -2.4585909094429788e-12 
4.4814908019811696e+01 -7.2820708457219325e+00 -2.4177144963735970e-12 
7.5664318592289419e+01 -1.2981152887496137e+01 1.0687316999142210e-12 
7.5664318592289419e+01 -1.2981152887496137e+01 1.0687316999142210e-12 
8.0986524435838078e+01 -1.4058080104974351e+01 2.0799152040083512e-12 
8.0986524435838078e+01 -1.4058080104974351e+01 2.0799152040083512e-12 
7.5664318592289419e+01 -1.2981152887496137e+01 1.0687316999142210e-12 
8.0986524435838135e+01 -1.4058080104974351e+01 2.0799152040083480e-12 
4.6230729262002797e+01 -7.9716766680834894e+00 -1.5996459341726167e-12 
4.6230729262002797e+01 -7.9716766680834894e+00 -1.5996459341726167e-12 
4.6055844545472894e+01 -8.0733314833878467e+00 -2.1123367304522095e-12 
4.6055844545472894e+01 -8.0733314833878467e+00 -2.1123367304522095e-12 
4.6230729262002797e+01 -7.9716766680834894e+00 -1.5996459341726167e-12 
4.6055844545473008e+01 -8.0733314833875056e+00 -2.1123367304522095e-12 
6.2563457275263772e+01 -8.9573400019266955e+00 -1.1023123451853566e-12 
6.2563457275263772e+01 -8.9573400019266955e+00 -1.1023123451853566e-12 
6.9591473350844183e+01 -1.0156886249906279e+01 -8.8340501168090390e-14 
6.9591473350844183e+01 -1.0156886249906279e+01 -8.8340501168090390e-14 
6.2563457275263772e+01 -8.9573400019266955e+00 -1.1023123451853566e-12 
6.9591473350844183e+01 -1.0156886249906279e+01 -8.8340501168090390e-14 
4.5877651071219987e+01 -6.9246161014195025e+00 1.1868646342154721e-13 
4.5877651071219987e+01 -6.9246161014195025e+00 1.1868646342154721e-13 
4.5846649435391754e+01 -6.8393587081183682e+00 -7.7524096653746775e-13 
4.5846649435391754e+01 -6.8393587081183682e+00 -7.7524096653746775e-13 
4.5877651071219987e+01 -6.9246161014195025e+00 1.1868646342154721e-13 
4.5846649435391754e+01 -6.8393587081183682e+00 -7.7524096653746775e-13 
4.3515559953048580e+01 -2.3798506131266947e+01 -1.2969497845840263e-12 
4.3515559953048580e+01 -2.3798506131266947e+01 -1.2969497845840263e-12 
5.4052510039229929e+01 -1.7578151227889691e+01 -1.4740180020131979e-12 
5.4052510039229929e+01 -1.7578151227889691e+01 -1.4740180020131979e-12 
4.3515559953048580e+01 -2.3798506131266947e+01 -1.2969497845840263e-12 
5.4052510039229986e+01 -1.7578151227889748e+01 -1.4740180020132181e-12 
5.1881123914837588e+01 -1.8858818088403694e+01 9.9879931350348414e-13 
5.1881123914837588e+01 -1.8858818088403694e+01 9.9879931350348414e-13 
4.9139911286750930e+01 -1.3818034848851795e+01 7.2181687946136760e-13 
4.9139911286750930e+01 -1.3818034848851795e+01 7.2181687946136760e-13 
5.1881123914837588e+01 -1.8858818088403694e+01 9.9879931350348414e-13 
4.9139911286750944e+01 -1.3818034848851852e+01 7.2181687946137163e-13 
2.0522866372800081e+01 8.6234283332296854e+01 -2.0189939965983756e-13 
1.6171141745925112e+01 8.9489671050159615e+01 2.8487884845151712e-14 
2.0522866372800081e+01 8.6234283332296854e+01 -2.0189939965983756e-13 
1.6171141745925112e+01 8.9489671050159615e+01 2.8487884845151712e-14 
3.1737907839239114e+01 6.6283188321916668e+00 -8.4266178617109253e-13 
1.8222240809467777e+01 9.6817182017034810e+01 9.6258531284591332e-20 
3.1737907839239114e+01 6.6283188321916668e+00 -8.4266178617109253e-13 
1.8222240809467777e+01 9.6817182017034810e+01 9.6258531284591332e-20 
2.0522866372800081e+01 8.6234283332296854e+01 -2.0189939965983756e-13 
1.6171141745925112e+01 8.9489671050159615e+01 2.8487884845151712e-14 
3.1737907839239114e+01 6.6283188321916668e+00 -8.4266178617109253e-13 
1.8222240809467777e+01 9.6817182017034810e+01 9.6258531284591332e-20 
1.1811684199499211e+01 6.7763768727837729e+01 -3.5768599147333862e-14 
1.1811684199499211e+01 6.7763768727837729e+01 -3.5768599147333862e-14 
1.4189803018363946e+01 7.6983789194251898e+01 -8.1708912872218594e-17 
1.4189803018363946e+01 7.6983789194251898e+01 -8.1708912872218594e-17 
1.1811684199499211e+01 6.7763768727837729e+01 -3.5768599147333862e-14 
1.4189803018363946e+01 7.6983789194251898e+01 -8.1708912872218594e-17 
1.3896104180183755e+01 4.8328488373368771e+01 2.5739925222226925e-13 
1.3896104180183755e+01 4.8328488373368771e+01 2.5739925222226925e-13 
4.2053470004791421e+01 -1.1452328813892336e+00 8.7654981750528022e-13 
1.0668772366634698e+01 5.9189836860088292e+01 -3.9852313965447995e-17 
4.2053470004791421e+01 -1.1452328813892336e+00 8.7654981750528022e-13 
1.0668772366634698e+01 5.9189836860088292e+01 -3.9852313965447995e-17 
1.3896104180183755e+01 4.8328488373368771e+01 2.5739925222226925e-13 
4.2053470004791421e+01 -1.1452328813892336e+00 8.7654981750528022e-13 
1.0668772366634698e+01 5.9189836860088235e+01 -3.9852313969587937e-17 

