# vtk DataFile Version 2.0

ASCII

DATASET UNSTRUCTURED_GRID

POINTS 237 float 

-5.0000000000000003e-02  0.0000000000000000e+00  0.0000000000000000e+00
-5.0000000000000003e-02  5.5555555555555552e-02  0.0000000000000000e+00
-5.0000000000000003e-02  0.0000000000000000e+00  2.9999999999999999e-01
-5.0000000000000003e-02  5.5555555555555552e-02  2.9999999999999999e-01
-5.0000000000000003e-02  2.7777777777777776e-02  0.0000000000000000e+00
-5.0000000000000003e-02  2.7777777777777776e-02  2.9999999999999999e-01
-5.0000000000000003e-02  0.0000000000000000e+00  1.4999999999999999e-01
-5.0000000000000003e-02  5.5555555555555552e-02  1.4999999999999999e-01
-5.0000000000000003e-02  2.7777777777777776e-02  1.4999999999999999e-01
5.0000000000000003e-02  0.0000000000000000e+00  0.0000000000000000e+00
5.0000000000000003e-02  5.5555555555555552e-02  0.0000000000000000e+00
5.0000000000000003e-02  0.0000000000000000e+00  2.9999999999999999e-01
5.0000000000000003e-02  5.5555555555555552e-02  2.9999999999999999e-01
5.0000000000000003e-02  2.7777777777777776e-02  0.0000000000000000e+00
5.0000000000000003e-02  2.7777777777777776e-02  2.9999999999999999e-01
5.0000000000000003e-02  0.0000000000000000e+00  1.4999999999999999e-01
5.0000000000000003e-02  5.5555555555555552e-02  1.4999999999999999e-01
5.0000000000000003e-02  2.7777777777777776e-02  1.4999999999999999e-01
-5.0000000000000003e-02  1.1111111111111110e-01  0.0000000000000000e+00
-5.0000000000000003e-02  1.1111111111111110e-01  2.9999999999999999e-01
-5.0000000000000003e-02  8.3333333333333329e-02  0.0000000000000000e+00
-5.0000000000000003e-02  8.3333333333333329e-02  2.9999999999999999e-01
-5.0000000000000003e-02  1.1111111111111110e-01  1.4999999999999999e-01
-5.0000000000000003e-02  8.3333333333333329e-02  1.4999999999999999e-01
5.0000000000000003e-02  1.1111111111111110e-01  0.0000000000000000e+00
5.0000000000000003e-02  1.1111111111111110e-01  2.9999999999999999e-01
5.0000000000000003e-02  8.3333333333333329e-02  0.0000000000000000e+00
5.0000000000000003e-02  8.3333333333333329e-02  2.9999999999999999e-01
5.0000000000000003e-02  1.1111111111111110e-01  1.4999999999999999e-01
5.0000000000000003e-02  8.3333333333333329e-02  1.4999999999999999e-01
-5.0000000000000003e-02  1.6666666666666666e-01  0.0000000000000000e+00
-5.0000000000000003e-02  1.6666666666666666e-01  2.9999999999999999e-01
-5.0000000000000003e-02  1.3888888888888890e-01  0.0000000000000000e+00
-5.0000000000000003e-02  1.3888888888888890e-01  2.9999999999999999e-01
-5.0000000000000003e-02  1.6666666666666666e-01  1.4999999999999999e-01
-5.0000000000000003e-02  1.3888888888888890e-01  1.4999999999999999e-01
5.0000000000000003e-02  1.6666666666666666e-01  0.0000000000000000e+00
5.0000000000000003e-02  1.6666666666666666e-01  2.9999999999999999e-01
5.0000000000000003e-02  1.3888888888888890e-01  0.0000000000000000e+00
5.0000000000000003e-02  1.3888888888888890e-01  2.9999999999999999e-01
5.0000000000000003e-02  1.6666666666666666e-01  1.4999999999999999e-01
5.0000000000000003e-02  1.3888888888888890e-01  1.4999999999999999e-01
-5.0000000000000003e-02  2.2222222222222221e-01  0.0000000000000000e+00
-5.0000000000000003e-02  2.2222222222222221e-01  2.9999999999999999e-01
-5.0000000000000003e-02  1.9444444444444442e-01  0.0000000000000000e+00
-5.0000000000000003e-02  1.9444444444444442e-01  2.9999999999999999e-01
-5.0000000000000003e-02  2.2222222222222221e-01  1.4999999999999999e-01
-5.0000000000000003e-02  1.9444444444444442e-01  1.4999999999999999e-01
5.0000000000000003e-02  2.2222222222222221e-01  0.0000000000000000e+00
5.0000000000000003e-02  2.2222222222222221e-01  2.9999999999999999e-01
5.0000000000000003e-02  1.9444444444444442e-01  0.0000000000000000e+00
5.0000000000000003e-02  1.9444444444444442e-01  2.9999999999999999e-01
5.0000000000000003e-02  2.2222222222222221e-01  1.4999999999999999e-01
5.0000000000000003e-02  1.9444444444444442e-01  1.4999999999999999e-01
-5.0000000000000003e-02  2.7777777777777779e-01  0.0000000000000000e+00
-5.0000000000000003e-02  2.7777777777777779e-01  2.9999999999999999e-01
-5.0000000000000003e-02  2.5000000000000000e-01  0.0000000000000000e+00
-5.0000000000000003e-02  2.5000000000000000e-01  2.9999999999999999e-01
-5.0000000000000003e-02  2.7777777777777779e-01  1.4999999999999999e-01
-5.0000000000000003e-02  2.5000000000000000e-01  1.4999999999999999e-01
5.0000000000000003e-02  2.7777777777777779e-01  0.0000000000000000e+00
5.0000000000000003e-02  2.7777777777777779e-01  2.9999999999999999e-01
5.0000000000000003e-02  2.5000000000000000e-01  0.0000000000000000e+00
5.0000000000000003e-02  2.5000000000000000e-01  2.9999999999999999e-01
5.0000000000000003e-02  2.7777777777777779e-01  1.4999999999999999e-01
5.0000000000000003e-02  2.5000000000000000e-01  1.4999999999999999e-01
-5.0000000000000003e-02  3.3333333333333331e-01  0.0000000000000000e+00
-5.0000000000000003e-02  3.3333333333333331e-01  2.9999999999999999e-01
-5.0000000000000003e-02  3.0555555555555558e-01  0.0000000000000000e+00
-5.0000000000000003e-02  3.0555555555555558e-01  2.9999999999999999e-01
-5.0000000000000003e-02  3.3333333333333331e-01  1.4999999999999999e-01
-5.0000000000000003e-02  3.0555555555555558e-01  1.4999999999999999e-01
5.0000000000000003e-02  3.3333333333333331e-01  0.0000000000000000e+00
5.0000000000000003e-02  3.3333333333333331e-01  2.9999999999999999e-01
5.0000000000000003e-02  3.0555555555555558e-01  0.0000000000000000e+00
5.0000000000000003e-02  3.0555555555555558e-01  2.9999999999999999e-01
5.0000000000000003e-02  3.3333333333333331e-01  1.4999999999999999e-01
5.0000000000000003e-02  3.0555555555555558e-01  1.4999999999999999e-01
-5.0000000000000003e-02  3.8888888888888884e-01  0.0000000000000000e+00
-5.0000000000000003e-02  3.8888888888888884e-01  2.9999999999999999e-01
-5.0000000000000003e-02  3.6111111111111105e-01  0.0000000000000000e+00
-5.0000000000000003e-02  3.6111111111111105e-01  2.9999999999999999e-01
-5.0000000000000003e-02  3.8888888888888884e-01  1.4999999999999999e-01
-5.0000000000000003e-02  3.6111111111111105e-01  1.4999999999999999e-01
5.0000000000000003e-02  3.8888888888888884e-01  0.0000000000000000e+00
5.0000000000000003e-02  3.8888888888888884e-01  2.9999999999999999e-01
5.0000000000000003e-02  3.6111111111111105e-01  0.0000000000000000e+00
5.0000000000000003e-02  3.6111111111111105e-01  2.9999999999999999e-01
5.0000000000000003e-02  3.8888888888888884e-01  1.4999999999999999e-01
5.0000000000000003e-02  3.6111111111111105e-01  1.4999999999999999e-01
-5.0000000000000003e-02  4.4444444444444442e-01  0.0000000000000000e+00
-5.0000000000000003e-02  4.4444444444444442e-01  2.9999999999999999e-01
-5.0000000000000003e-02  4.1666666666666663e-01  0.0000000000000000e+00
-5.0000000000000003e-02  4.1666666666666663e-01  2.9999999999999999e-01
-5.0000000000000003e-02  4.4444444444444442e-01  1.4999999999999999e-01
-5.0000000000000003e-02  4.1666666666666663e-01  1.4999999999999999e-01
5.0000000000000003e-02  4.4444444444444442e-01  0.0000000000000000e+00
5.0000000000000003e-02  4.4444444444444442e-01  2.9999999999999999e-01
5.0000000000000003e-02  4.1666666666666663e-01  0.0000000000000000e+00
5.0000000000000003e-02  4.1666666666666663e-01  2.9999999999999999e-01
5.0000000000000003e-02  4.4444444444444442e-01  1.4999999999999999e-01
5.0000000000000003e-02  4.1666666666666663e-01  1.4999999999999999e-01
-5.0000000000000003e-02  5.0000000000000000e-01  0.0000000000000000e+00
-5.0000000000000003e-02  5.0000000000000000e-01  2.9999999999999999e-01
-5.0000000000000003e-02  4.7222222222222221e-01  0.0000000000000000e+00
-5.0000000000000003e-02  4.7222222222222221e-01  2.9999999999999999e-01
-5.0000000000000003e-02  5.0000000000000000e-01  1.4999999999999999e-01
-5.0000000000000003e-02  4.7222222222222221e-01  1.4999999999999999e-01
5.0000000000000003e-02  5.0000000000000000e-01  0.0000000000000000e+00
5.0000000000000003e-02  5.0000000000000000e-01  2.9999999999999999e-01
5.0000000000000003e-02  4.7222222222222221e-01  0.0000000000000000e+00
5.0000000000000003e-02  4.7222222222222221e-01  2.9999999999999999e-01
5.0000000000000003e-02  5.0000000000000000e-01  1.4999999999999999e-01
5.0000000000000003e-02  4.7222222222222221e-01  1.4999999999999999e-01
-5.0000000000000003e-02  5.5555555555555558e-01  0.0000000000000000e+00
-5.0000000000000003e-02  5.5555555555555558e-01  2.9999999999999999e-01
-5.0000000000000003e-02  5.2777777777777779e-01  0.0000000000000000e+00
-5.0000000000000003e-02  5.2777777777777779e-01  2.9999999999999999e-01
-5.0000000000000003e-02  5.5555555555555558e-01  1.4999999999999999e-01
-5.0000000000000003e-02  5.2777777777777779e-01  1.4999999999999999e-01
5.0000000000000003e-02  5.5555555555555558e-01  0.0000000000000000e+00
5.0000000000000003e-02  5.5555555555555558e-01  2.9999999999999999e-01
5.0000000000000003e-02  5.2777777777777779e-01  0.0000000000000000e+00
5.0000000000000003e-02  5.2777777777777779e-01  2.9999999999999999e-01
5.0000000000000003e-02  5.5555555555555558e-01  1.4999999999999999e-01
5.0000000000000003e-02  5.2777777777777779e-01  1.4999999999999999e-01
-5.0000000000000003e-02  6.1111111111111105e-01  0.0000000000000000e+00
-5.0000000000000003e-02  6.1111111111111105e-01  2.9999999999999999e-01
-5.0000000000000003e-02  5.8333333333333326e-01  0.0000000000000000e+00
-5.0000000000000003e-02  5.8333333333333326e-01  2.9999999999999999e-01
-5.0000000000000003e-02  6.1111111111111105e-01  1.4999999999999999e-01
-5.0000000000000003e-02  5.8333333333333326e-01  1.4999999999999999e-01
5.0000000000000003e-02  6.1111111111111105e-01  0.0000000000000000e+00
5.0000000000000003e-02  6.1111111111111105e-01  2.9999999999999999e-01
5.0000000000000003e-02  5.8333333333333326e-01  0.0000000000000000e+00
5.0000000000000003e-02  5.8333333333333326e-01  2.9999999999999999e-01
5.0000000000000003e-02  6.1111111111111105e-01  1.4999999999999999e-01
5.0000000000000003e-02  5.8333333333333326e-01  1.4999999999999999e-01
-5.0000000000000003e-02  6.6666666666666663e-01  0.0000000000000000e+00
-5.0000000000000003e-02  6.6666666666666663e-01  2.9999999999999999e-01
-5.0000000000000003e-02  6.3888888888888884e-01  0.0000000000000000e+00
-5.0000000000000003e-02  6.3888888888888884e-01  2.9999999999999999e-01
-5.0000000000000003e-02  6.6666666666666663e-01  1.4999999999999999e-01
-5.0000000000000003e-02  6.3888888888888884e-01  1.4999999999999999e-01
5.0000000000000003e-02  6.6666666666666663e-01  0.0000000000000000e+00
5.0000000000000003e-02  6.6666666666666663e-01  2.9999999999999999e-01
5.0000000000000003e-02  6.3888888888888884e-01  0.0000000000000000e+00
5.0000000000000003e-02  6.3888888888888884e-01  2.9999999999999999e-01
5.0000000000000003e-02  6.6666666666666663e-01  1.4999999999999999e-01
5.0000000000000003e-02  6.3888888888888884e-01  1.4999999999999999e-01
-5.0000000000000003e-02  7.2222222222222221e-01  0.0000000000000000e+00
-5.0000000000000003e-02  7.2222222222222221e-01  2.9999999999999999e-01
-5.0000000000000003e-02  6.9444444444444442e-01  0.0000000000000000e+00
-5.0000000000000003e-02  6.9444444444444442e-01  2.9999999999999999e-01
-5.0000000000000003e-02  7.2222222222222221e-01  1.4999999999999999e-01
-5.0000000000000003e-02  6.9444444444444442e-01  1.4999999999999999e-01
5.0000000000000003e-02  7.2222222222222221e-01  0.0000000000000000e+00
5.0000000000000003e-02  7.2222222222222221e-01  2.9999999999999999e-01
5.0000000000000003e-02  6.9444444444444442e-01  0.0000000000000000e+00
5.0000000000000003e-02  6.9444444444444442e-01  2.9999999999999999e-01
5.0000000000000003e-02  7.2222222222222221e-01  1.4999999999999999e-01
5.0000000000000003e-02  6.9444444444444442e-01  1.4999999999999999e-01
-5.0000000000000003e-02  7.7777777777777768e-01  0.0000000000000000e+00
-5.0000000000000003e-02  7.7777777777777768e-01  2.9999999999999999e-01
-5.0000000000000003e-02  7.5000000000000000e-01  0.0000000000000000e+00
-5.0000000000000003e-02  7.5000000000000000e-01  2.9999999999999999e-01
-5.0000000000000003e-02  7.7777777777777768e-01  1.4999999999999999e-01
-5.0000000000000003e-02  7.5000000000000000e-01  1.4999999999999999e-01
5.0000000000000003e-02  7.7777777777777768e-01  0.0000000000000000e+00
5.0000000000000003e-02  7.7777777777777768e-01  2.9999999999999999e-01
5.0000000000000003e-02  7.5000000000000000e-01  0.0000000000000000e+00
5.0000000000000003e-02  7.5000000000000000e-01  2.9999999999999999e-01
5.0000000000000003e-02  7.7777777777777768e-01  1.4999999999999999e-01
5.0000000000000003e-02  7.5000000000000000e-01  1.4999999999999999e-01
-5.0000000000000003e-02  8.3333333333333326e-01  0.0000000000000000e+00
-5.0000000000000003e-02  8.3333333333333326e-01  2.9999999999999999e-01
-5.0000000000000003e-02  8.0555555555555547e-01  0.0000000000000000e+00
-5.0000000000000003e-02  8.0555555555555547e-01  2.9999999999999999e-01
-5.0000000000000003e-02  8.3333333333333326e-01  1.4999999999999999e-01
-5.0000000000000003e-02  8.0555555555555536e-01  1.4999999999999999e-01
5.0000000000000003e-02  8.3333333333333326e-01  0.0000000000000000e+00
5.0000000000000003e-02  8.3333333333333326e-01  2.9999999999999999e-01
5.0000000000000003e-02  8.0555555555555547e-01  0.0000000000000000e+00
5.0000000000000003e-02  8.0555555555555547e-01  2.9999999999999999e-01
5.0000000000000003e-02  8.3333333333333326e-01  1.4999999999999999e-01
5.0000000000000003e-02  8.0555555555555536e-01  1.4999999999999999e-01
-5.0000000000000003e-02  8.8888888888888884e-01  0.0000000000000000e+00
-5.0000000000000003e-02  8.8888888888888884e-01  2.9999999999999999e-01
-5.0000000000000003e-02  8.6111111111111105e-01  0.0000000000000000e+00
-5.0000000000000003e-02  8.6111111111111105e-01  2.9999999999999999e-01
-5.0000000000000003e-02  8.8888888888888884e-01  1.4999999999999999e-01
-5.0000000000000003e-02  8.6111111111111105e-01  1.4999999999999999e-01
5.0000000000000003e-02  8.8888888888888884e-01  0.0000000000000000e+00
5.0000000000000003e-02  8.8888888888888884e-01  2.9999999999999999e-01
5.0000000000000003e-02  8.6111111111111105e-01  0.0000000000000000e+00
5.0000000000000003e-02  8.6111111111111105e-01  2.9999999999999999e-01
5.0000000000000003e-02  8.8888888888888884e-01  1.4999999999999999e-01
5.0000000000000003e-02  8.6111111111111105e-01  1.4999999999999999e-01
-5.0000000000000003e-02  9.4444444444444442e-01  0.0000000000000000e+00
-5.0000000000000003e-02  9.4444444444444442e-01  2.9999999999999999e-01
-5.0000000000000003e-02  9.1666666666666663e-01  0.0000000000000000e+00
-5.0000000000000003e-02  9.1666666666666663e-01  2.9999999999999999e-01
-5.0000000000000003e-02  9.4444444444444442e-01  1.4999999999999999e-01
-5.0000000000000003e-02  9.1666666666666674e-01  1.4999999999999999e-01
5.0000000000000003e-02  9.4444444444444442e-01  0.0000000000000000e+00
5.0000000000000003e-02  9.4444444444444442e-01  2.9999999999999999e-01
5.0000000000000003e-02  9.1666666666666663e-01  0.0000000000000000e+00
5.0000000000000003e-02  9.1666666666666663e-01  2.9999999999999999e-01
5.0000000000000003e-02  9.4444444444444442e-01  1.4999999999999999e-01
5.0000000000000003e-02  9.1666666666666674e-01  1.4999999999999999e-01
-5.0000000000000003e-02  1.0000000000000000e+00  0.0000000000000000e+00
-1.6666666666666670e-02  1.0000000000000000e+00  0.0000000000000000e+00
-5.0000000000000003e-02  1.0000000000000000e+00  2.9999999999999999e-01
-1.6666666666666670e-02  1.0000000000000000e+00  2.9999999999999999e-01
-5.0000000000000003e-02  9.7222222222222221e-01  0.0000000000000000e+00
-3.3333333333333340e-02  1.0000000000000000e+00  0.0000000000000000e+00
-5.0000000000000003e-02  9.7222222222222221e-01  2.9999999999999999e-01
-3.3333333333333340e-02  1.0000000000000000e+00  2.9999999999999999e-01
-5.0000000000000003e-02  1.0000000000000000e+00  1.4999999999999999e-01
-1.6666666666666670e-02  1.0000000000000000e+00  1.4999999999999999e-01
-5.0000000000000003e-02  9.7222222222222221e-01  1.4999999999999999e-01
-3.3333333333333340e-02  1.0000000000000000e+00  1.4999999999999999e-01
1.6666666666666663e-02  1.0000000000000000e+00  0.0000000000000000e+00
1.6666666666666663e-02  1.0000000000000000e+00  2.9999999999999999e-01
-3.4694469519536142e-18  1.0000000000000000e+00  0.0000000000000000e+00
-3.4694469519536142e-18  1.0000000000000000e+00  2.9999999999999999e-01
1.6666666666666663e-02  1.0000000000000000e+00  1.4999999999999999e-01
-3.4694469519536142e-18  1.0000000000000000e+00  1.4999999999999999e-01
5.0000000000000003e-02  1.0000000000000000e+00  0.0000000000000000e+00
5.0000000000000003e-02  1.0000000000000000e+00  2.9999999999999999e-01
5.0000000000000003e-02  9.7222222222222221e-01  0.0000000000000000e+00
3.3333333333333333e-02  1.0000000000000000e+00  0.0000000000000000e+00
5.0000000000000003e-02  9.7222222222222221e-01  2.9999999999999999e-01
3.3333333333333333e-02  1.0000000000000000e+00  2.9999999999999999e-01
5.0000000000000003e-02  1.0000000000000000e+00  1.4999999999999999e-01
5.0000000000000003e-02  9.7222222222222221e-01  1.4999999999999999e-01
3.3333333333333333e-02  1.0000000000000000e+00  1.4999999999999999e-01

CELLS 0 0


CELL_TYPES 0


POINT_DATA 237

VECTORS VertexNormals float

0.0000000000000000e+00 0.0000000000000000e+00 0.0000000000000000e+00 
0.0000000000000000e+00 0.0000000000000000e+00 0.0000000000000000e+00 
0.0000000000000000e+00 0.0000000000000000e+00 0.0000000000000000e+00 
0.0000000000000000e+00 0.0000000000000000e+00 0.0000000000000000e+00 
0.0000000000000000e+00 0.0000000000000000e+00 0.0000000000000000e+00 
0.0000000000000000e+00 0.0000000000000000e+00 0.0000000000000000e+00 
0.0000000000000000e+00 0.0000000000000000e+00 0.0000000000000000e+00 
0.0000000000000000e+00 0.0000000000000000e+00 0.0000000000000000e+00 
0.0000000000000000e+00 0.0000000000000000e+00 0.0000000000000000e+00 
0.0000000000000000e+00 0.0000000000000000e+00 0.0000000000000000e+00 
0.0000000000000000e+00 0.0000000000000000e+00 0.0000000000000000e+00 
0.0000000000000000e+00 0.0000000000000000e+00 0.0000000000000000e+00 
0.0000000000000000e+00 0.0000000000000000e+00 0.0000000000000000e+00 
0.0000000000000000e+00 0.0000000000000000e+00 0.0000000000000000e+00 
0.0000000000000000e+00 0.0000000000000000e+00 0.0000000000000000e+00 
0.0000000000000000e+00 0.0000000000000000e+00 0.0000000000000000e+00 
0.0000000000000000e+00 0.0000000000000000e+00 0.0000000000000000e+00 
0.0000000000000000e+00 0.0000000000000000e+00 0.0000000000000000e+00 
0.0000000000000000e+00 0.0000000000000000e+00 0.0000000000000000e+00 
0.0000000000000000e+00 0.0000000000000000e+00 0.0000000000000000e+00 
0.0000000000000000e+00 0.0000000000000000e+00 0.0000000000000000e+00 
0.0000000000000000e+00 0.0000000000000000e+00 0.0000000000000000e+00 
0.0000000000000000e+00 0.0000000000000000e+00 0.0000000000000000e+00 
0.0000000000000000e+00 0.0000000000000000e+00 0.0000000000000000e+00 
0.0000000000000000e+00 0.0000000000000000e+00 0.0000000000000000e+00 
0.0000000000000000e+00 0.0000000000000000e+00 0.0000000000000000e+00 
0.0000000000000000e+00 0.0000000000000000e+00 0.0000000000000000e+00 
0.0000000000000000e+00 0.0000000000000000e+00 0.0000000000000000e+00 
0.0000000000000000e+00 0.0000000000000000e+00 0.0000000000000000e+00 
0.0000000000000000e+00 0.0000000000000000e+00 0.0000000000000000e+00 
0.0000000000000000e+00 0.0000000000000000e+00 0.0000000000000000e+00 
0.0000000000000000e+00 0.0000000000000000e+00 0.0000000000000000e+00 
0.0000000000000000e+00 0.0000000000000000e+00 0.0000000000000000e+00 
0.0000000000000000e+00 0.0000000000000000e+00 0.0000000000000000e+00 
0.0000000000000000e+00 0.0000000000000000e+00 0.0000000000000000e+00 
0.0000000000000000e+00 0.0000000000000000e+00 0.0000000000000000e+00 
0.0000000000000000e+00 0.0000000000000000e+00 0.0000000000000000e+00 
0.0000000000000000e+00 0.0000000000000000e+00 0.0000000000000000e+00 
0.0000000000000000e+00 0.0000000000000000e+00 0.0000000000000000e+00 
0.0000000000000000e+00 0.0000000000000000e+00 0.0000000000000000e+00 
0.0000000000000000e+00 0.0000000000000000e+00 0.0000000000000000e+00 
0.0000000000000000e+00 0.0000000000000000e+00 0.0000000000000000e+00 
0.0000000000000000e+00 0.0000000000000000e+00 0.0000000000000000e+00 
0.0000000000000000e+00 0.0000000000000000e+00 0.0000000000000000e+00 
0.0000000000000000e+00 0.0000000000000000e+00 0.0000000000000000e+00 
0.0000000000000000e+00 0.0000000000000000e+00 0.0000000000000000e+00 
0.0000000000000000e+00 0.0000000000000000e+00 0.0000000000000000e+00 
0.0000000000000000e+00 0.0000000000000000e+00 0.0000000000000000e+00 
0.0000000000000000e+00 0.0000000000000000e+00 0.0000000000000000e+00 
0.0000000000000000e+00 0.0000000000000000e+00 0.0000000000000000e+00 
0.0000000000000000e+00 0.0000000000000000e+00 0.0000000000000000e+00 
0.0000000000000000e+00 0.0000000000000000e+00 0.0000000000000000e+00 
0.0000000000000000e+00 0.0000000000000000e+00 0.0000000000000000e+00 
0.0000000000000000e+00 0.0000000000000000e+00 0.0000000000000000e+00 
0.0000000000000000e+00 0.0000000000000000e+00 0.0000000000000000e+00 
0.0000000000000000e+00 0.0000000000000000e+00 0.0000000000000000e+00 
0.0000000000000000e+00 0.0000000000000000e+00 0.0000000000000000e+00 
0.0000000000000000e+00 0.0000000000000000e+00 0.0000000000000000e+00 
0.0000000000000000e+00 0.0000000000000000e+00 0.0000000000000000e+00 
0.0000000000000000e+00 0.0000000000000000e+00 0.0000000000000000e+00 
0.0000000000000000e+00 0.0000000000000000e+00 0.0000000000000000e+00 
0.0000000000000000e+00 0.0000000000000000e+00 0.0000000000000000e+00 
0.0000000000000000e+00 0.0000000000000000e+00 0.0000000000000000e+00 
0.0000000000000000e+00 0.0000000000000000e+00 0.0000000000000000e+00 
0.0000000000000000e+00 0.0000000000000000e+00 0.0000000000000000e+00 
0.0000000000000000e+00 0.0000000000000000e+00 0.0000000000000000e+00 
0.0000000000000000e+00 0.0000000000000000e+00 0.0000000000000000e+00 
0.0000000000000000e+00 0.0000000000000000e+00 0.0000000000000000e+00 
0.0000000000000000e+00 0.0000000000000000e+00 0.0000000000000000e+00 
0.0000000000000000e+00 0.0000000000000000e+00 0.0000000000000000e+00 
0.0000000000000000e+00 0.0000000000000000e+00 0.0000000000000000e+00 
0.0000000000000000e+00 0.0000000000000000e+00 0.0000000000000000e+00 
0.0000000000000000e+00 0.0000000000000000e+00 0.0000000000000000e+00 
0.0000000000000000e+00 0.0000000000000000e+00 0.0000000000000000e+00 
0.0000000000000000e+00 0.0000000000000000e+00 0.0000000000000000e+00 
0.0000000000000000e+00 0.0000000000000000e+00 0.0000000000000000e+00 
0.0000000000000000e+00 0.0000000000000000e+00 0.0000000000000000e+00 
0.0000000000000000e+00 0.0000000000000000e+00 0.0000000000000000e+00 
0.0000000000000000e+00 0.0000000000000000e+00 0.0000000000000000e+00 
0.0000000000000000e+00 0.0000000000000000e+00 0.0000000000000000e+00 
0.0000000000000000e+00 0.0000000000000000e+00 0.0000000000000000e+00 
0.0000000000000000e+00 0.0000000000000000e+00 0.0000000000000000e+00 
0.0000000000000000e+00 0.0000000000000000e+00 0.0000000000000000e+00 
0.0000000000000000e+00 0.0000000000000000e+00 0.0000000000000000e+00 
0.0000000000000000e+00 0.0000000000000000e+00 0.0000000000000000e+00 
0.0000000000000000e+00 0.0000000000000000e+00 0.0000000000000000e+00 
0.0000000000000000e+00 0.0000000000000000e+00 0.0000000000000000e+00 
0.0000000000000000e+00 0.0000000000000000e+00 0.0000000000000000e+00 
0.0000000000000000e+00 0.0000000000000000e+00 0.0000000000000000e+00 
0.0000000000000000e+00 0.0000000000000000e+00 0.0000000000000000e+00 
0.0000000000000000e+00 0.0000000000000000e+00 0.0000000000000000e+00 
0.0000000000000000e+00 0.0000000000000000e+00 0.0000000000000000e+00 
0.0000000000000000e+00 0.0000000000000000e+00 0.0000000000000000e+00 
0.0000000000000000e+00 0.0000000000000000e+00 0.0000000000000000e+00 
0.0000000000000000e+00 0.0000000000000000e+00 0.0000000000000000e+00 
0.0000000000000000e+00 0.0000000000000000e+00 0.0000000000000000e+00 
0.0000000000000000e+00 0.0000000000000000e+00 0.0000000000000000e+00 
0.0000000000000000e+00 0.0000000000000000e+00 0.0000000000000000e+00 
0.0000000000000000e+00 0.0000000000000000e+00 0.0000000000000000e+00 
0.0000000000000000e+00 0.0000000000000000e+00 0.0000000000000000e+00 
0.0000000000000000e+00 0.0000000000000000e+00 0.0000000000000000e+00 
0.0000000000000000e+00 0.0000000000000000e+00 0.0000000000000000e+00 
0.0000000000000000e+00 0.0000000000000000e+00 0.0000000000000000e+00 
0.0000000000000000e+00 0.0000000000000000e+00 0.0000000000000000e+00 
0.0000000000000000e+00 0.0000000000000000e+00 0.0000000000000000e+00 
0.0000000000000000e+00 0.0000000000000000e+00 0.0000000000000000e+00 
0.0000000000000000e+00 0.0000000000000000e+00 0.0000000000000000e+00 
0.0000000000000000e+00 0.0000000000000000e+00 0.0000000000000000e+00 
0.0000000000000000e+00 0.0000000000000000e+00 0.0000000000000000e+00 
0.0000000000000000e+00 0.0000000000000000e+00 0.0000000000000000e+00 
0.0000000000000000e+00 0.0000000000000000e+00 0.0000000000000000e+00 
0.0000000000000000e+00 0.0000000000000000e+00 0.0000000000000000e+00 
0.0000000000000000e+00 0.0000000000000000e+00 0.0000000000000000e+00 
0.0000000000000000e+00 0.0000000000000000e+00 0.0000000000000000e+00 
0.0000000000000000e+00 0.0000000000000000e+00 0.0000000000000000e+00 
0.0000000000000000e+00 0.0000000000000000e+00 0.0000000000000000e+00 
0.0000000000000000e+00 0.0000000000000000e+00 0.0000000000000000e+00 
0.0000000000000000e+00 0.0000000000000000e+00 0.0000000000000000e+00 
0.0000000000000000e+00 0.0000000000000000e+00 0.0000000000000000e+00 
0.0000000000000000e+00 0.0000000000000000e+00 0.0000000000000000e+00 
0.0000000000000000e+00 0.0000000000000000e+00 0.0000000000000000e+00 
0.0000000000000000e+00 0.0000000000000000e+00 0.0000000000000000e+00 
0.0000000000000000e+00 0.0000000000000000e+00 0.0000000000000000e+00 
0.0000000000000000e+00 0.0000000000000000e+00 0.0000000000000000e+00 
0.0000000000000000e+00 0.0000000000000000e+00 0.0000000000000000e+00 
0.0000000000000000e+00 0.0000000000000000e+00 0.0000000000000000e+00 
0.0000000000000000e+00 0.0000000000000000e+00 0.0000000000000000e+00 
0.0000000000000000e+00 0.0000000000000000e+00 0.0000000000000000e+00 
0.0000000000000000e+00 0.0000000000000000e+00 0.0000000000000000e+00 
0.0000000000000000e+00 0.0000000000000000e+00 0.0000000000000000e+00 
0.0000000000000000e+00 0.0000000000000000e+00 0.0000000000000000e+00 
0.0000000000000000e+00 0.0000000000000000e+00 0.0000000000000000e+00 
0.0000000000000000e+00 0.0000000000000000e+00 0.0000000000000000e+00 
0.0000000000000000e+00 0.0000000000000000e+00 0.0000000000000000e+00 
0.0000000000000000e+00 0.0000000000000000e+00 0.0000000000000000e+00 
0.0000000000000000e+00 0.0000000000000000e+00 0.0000000000000000e+00 
0.0000000000000000e+00 0.0000000000000000e+00 0.0000000000000000e+00 
0.0000000000000000e+00 0.0000000000000000e+00 0.0000000000000000e+00 
0.0000000000000000e+00 0.0000000000000000e+00 0.0000000000000000e+00 
0.0000000000000000e+00 0.0000000000000000e+00 0.0000000000000000e+00 
0.0000000000000000e+00 0.0000000000000000e+00 0.0000000000000000e+00 
0.0000000000000000e+00 0.0000000000000000e+00 0.0000000000000000e+00 
0.0000000000000000e+00 0.0000000000000000e+00 0.0000000000000000e+00 
0.0000000000000000e+00 0.0000000000000000e+00 0.0000000000000000e+00 
0.0000000000000000e+00 0.0000000000000000e+00 0.0000000000000000e+00 
0.0000000000000000e+00 0.0000000000000000e+00 0.0000000000000000e+00 
0.0000000000000000e+00 0.0000000000000000e+00 0.0000000000000000e+00 
0.0000000000000000e+00 0.0000000000000000e+00 0.0000000000000000e+00 
0.0000000000000000e+00 0.0000000000000000e+00 0.0000000000000000e+00 
0.0000000000000000e+00 0.0000000000000000e+00 0.0000000000000000e+00 
0.0000000000000000e+00 0.0000000000000000e+00 0.0000000000000000e+00 
0.0000000000000000e+00 0.0000000000000000e+00 0.0000000000000000e+00 
0.0000000000000000e+00 0.0000000000000000e+00 0.0000000000000000e+00 
0.0000000000000000e+00 0.0000000000000000e+00 0.0000000000000000e+00 
0.0000000000000000e+00 0.0000000000000000e+00 0.0000000000000000e+00 
0.0000000000000000e+00 0.0000000000000000e+00 0.0000000000000000e+00 
0.0000000000000000e+00 0.0000000000000000e+00 0.0000000000000000e+00 
0.0000000000000000e+00 0.0000000000000000e+00 0.0000000000000000e+00 
0.0000000000000000e+00 0.0000000000000000e+00 0.0000000000000000e+00 
0.0000000000000000e+00 0.0000000000000000e+00 0.0000000000000000e+00 
0.0000000000000000e+00 0.0000000000000000e+00 0.0000000000000000e+00 
0.0000000000000000e+00 0.0000000000000000e+00 0.0000000000000000e+00 
0.0000000000000000e+00 0.0000000000000000e+00 0.0000000000000000e+00 
0.0000000000000000e+00 0.0000000000000000e+00 0.0000000000000000e+00 
0.0000000000000000e+00 0.0000000000000000e+00 0.0000000000000000e+00 
0.0000000000000000e+00 0.0000000000000000e+00 0.0000000000000000e+00 
0.0000000000000000e+00 0.0000000000000000e+00 0.0000000000000000e+00 
0.0000000000000000e+00 0.0000000000000000e+00 0.0000000000000000e+00 
0.0000000000000000e+00 0.0000000000000000e+00 0.0000000000000000e+00 
0.0000000000000000e+00 0.0000000000000000e+00 0.0000000000000000e+00 
0.0000000000000000e+00 0.0000000000000000e+00 0.0000000000000000e+00 
0.0000000000000000e+00 0.0000000000000000e+00 0.0000000000000000e+00 
0.0000000000000000e+00 0.0000000000000000e+00 0.0000000000000000e+00 
0.0000000000000000e+00 0.0000000000000000e+00 0.0000000000000000e+00 
0.0000000000000000e+00 0.0000000000000000e+00 0.0000000000000000e+00 
0.0000000000000000e+00 0.0000000000000000e+00 0.0000000000000000e+00 
0.0000000000000000e+00 0.0000000000000000e+00 0.0000000000000000e+00 
0.0000000000000000e+00 0.0000000000000000e+00 0.0000000000000000e+00 
0.0000000000000000e+00 0.0000000000000000e+00 0.0000000000000000e+00 
0.0000000000000000e+00 0.0000000000000000e+00 0.0000000000000000e+00 
0.0000000000000000e+00 0.0000000000000000e+00 0.0000000000000000e+00 
0.0000000000000000e+00 0.0000000000000000e+00 0.0000000000000000e+00 
0.0000000000000000e+00 0.0000000000000000e+00 0.0000000000000000e+00 
0.0000000000000000e+00 0.0000000000000000e+00 0.0000000000000000e+00 
0.0000000000000000e+00 0.0000000000000000e+00 0.0000000000000000e+00 
0.0000000000000000e+00 0.0000000000000000e+00 0.0000000000000000e+00 
0.0000000000000000e+00 0.0000000000000000e+00 0.0000000000000000e+00 
0.0000000000000000e+00 0.0000000000000000e+00 0.0000000000000000e+00 
0.0000000000000000e+00 0.0000000000000000e+00 0.0000000000000000e+00 
0.0000000000000000e+00 0.0000000000000000e+00 0.0000000000000000e+00 
0.0000000000000000e+00 0.0000000000000000e+00 0.0000000000000000e+00 
0.0000000000000000e+00 0.0000000000000000e+00 0.0000000000000000e+00 
0.0000000000000000e+00 0.0000000000000000e+00 0.0000000000000000e+00 
0.0000000000000000e+00 0.0000000000000000e+00 0.0000000000000000e+00 
0.0000000000000000e+00 0.0000000000000000e+00 0.0000000000000000e+00 
0.0000000000000000e+00 0.0000000000000000e+00 0.0000000000000000e+00 
0.0000000000000000e+00 0.0000000000000000e+00 0.0000000000000000e+00 
0.0000000000000000e+00 0.0000000000000000e+00 0.0000000000000000e+00 
0.0000000000000000e+00 0.0000000000000000e+00 0.0000000000000000e+00 
0.0000000000000000e+00 0.0000000000000000e+00 0.0000000000000000e+00 
0.0000000000000000e+00 0.0000000000000000e+00 0.0000000000000000e+00 
0.0000000000000000e+00 0.0000000000000000e+00 0.0000000000000000e+00 
0.0000000000000000e+00 0.0000000000000000e+00 0.0000000000000000e+00 
0.0000000000000000e+00 0.0000000000000000e+00 0.0000000000000000e+00 
0.0000000000000000e+00 0.0000000000000000e+00 0.0000000000000000e+00 
0.0000000000000000e+00 0.0000000000000000e+00 0.0000000000000000e+00 
0.0000000000000000e+00 0.0000000000000000e+00 0.0000000000000000e+00 
0.0000000000000000e+00 0.0000000000000000e+00 0.0000000000000000e+00 
0.0000000000000000e+00 0.0000000000000000e+00 0.0000000000000000e+00 
0.0000000000000000e+00 0.0000000000000000e+00 0.0000000000000000e+00 
0.0000000000000000e+00 0.0000000000000000e+00 0.0000000000000000e+00 
0.0000000000000000e+00 0.0000000000000000e+00 0.0000000000000000e+00 
0.0000000000000000e+00 0.0000000000000000e+00 0.0000000000000000e+00 
0.0000000000000000e+00 0.0000000000000000e+00 0.0000000000000000e+00 
0.0000000000000000e+00 0.0000000000000000e+00 0.0000000000000000e+00 
0.0000000000000000e+00 0.0000000000000000e+00 0.0000000000000000e+00 
0.0000000000000000e+00 0.0000000000000000e+00 0.0000000000000000e+00 
0.0000000000000000e+00 0.0000000000000000e+00 0.0000000000000000e+00 
0.0000000000000000e+00 0.0000000000000000e+00 0.0000000000000000e+00 
0.0000000000000000e+00 0.0000000000000000e+00 0.0000000000000000e+00 
0.0000000000000000e+00 0.0000000000000000e+00 0.0000000000000000e+00 
0.0000000000000000e+00 0.0000000000000000e+00 0.0000000000000000e+00 
0.0000000000000000e+00 0.0000000000000000e+00 0.0000000000000000e+00 
0.0000000000000000e+00 0.0000000000000000e+00 0.0000000000000000e+00 
0.0000000000000000e+00 0.0000000000000000e+00 0.0000000000000000e+00 
0.0000000000000000e+00 0.0000000000000000e+00 0.0000000000000000e+00 
0.0000000000000000e+00 0.0000000000000000e+00 0.0000000000000000e+00 
0.0000000000000000e+00 0.0000000000000000e+00 0.0000000000000000e+00 
0.0000000000000000e+00 0.0000000000000000e+00 0.0000000000000000e+00 
0.0000000000000000e+00 0.0000000000000000e+00 0.0000000000000000e+00 
0.0000000000000000e+00 0.0000000000000000e+00 0.0000000000000000e+00 
0.0000000000000000e+00 0.0000000000000000e+00 0.0000000000000000e+00 
0.0000000000000000e+00 0.0000000000000000e+00 0.0000000000000000e+00 
0.0000000000000000e+00 0.0000000000000000e+00 0.0000000000000000e+00 
0.0000000000000000e+00 0.0000000000000000e+00 0.0000000000000000e+00 
0.0000000000000000e+00 0.0000000000000000e+00 0.0000000000000000e+00 
0.0000000000000000e+00 0.0000000000000000e+00 0.0000000000000000e+00 

VECTORS Displacement float
0.0000000000000000e+00 0.0000000000000000e+00 0.0000000000000000e+00 
2.8625809764092893e-03 3.4661278367203942e-03 0.0000000000000000e+00 
0.0000000000000000e+00 0.0000000000000000e+00 0.0000000000000000e+00 
2.8625766867538538e-03 3.4661397183169875e-03 0.0000000000000000e+00 
1.2031431264281070e-03 1.7925804726551297e-03 0.0000000000000000e+00 
1.2031308335478620e-03 1.7925818301338030e-03 0.0000000000000000e+00 
0.0000000000000000e+00 0.0000000000000000e+00 0.0000000000000000e+00 
2.8625856695963584e-03 3.4661284821785620e-03 9.3440556333208529e-10 
1.2031337498164922e-03 1.7925773210300073e-03 2.3720442492625947e-11 
0.0000000000000000e+00 0.0000000000000000e+00 0.0000000000000000e+00 
2.9171306970639885e-03 -3.8253584660795995e-03 0.0000000000000000e+00 
0.0000000000000000e+00 0.0000000000000000e+00 0.0000000000000000e+00 
2.9171063228878892e-03 -3.8253803912222427e-03 0.0000000000000000e+00 
1.2593046392243663e-03 -1.9704105935766385e-03 0.0000000000000000e+00 
1.2592816694164408e-03 -1.9704129062164078e-03 0.0000000000000000e+00 
0.0000000000000000e+00 0.0000000000000000e+00 0.0000000000000000e+00 
2.9171183237777136e-03 -3.8253682317765359e-03 3.3951926355698472e-09 
1.2592875459736101e-03 -1.9704121669055245e-03 2.4441793968565436e-09 
9.0230471818814294e-03 6.7634469379407557e-03 0.0000000000000000e+00 
9.0230595536620935e-03 6.7634435903862868e-03 0.0000000000000000e+00 
5.4978239849413253e-03 5.1139363202465857e-03 0.0000000000000000e+00 
5.4978350381927957e-03 5.1139635352953385e-03 0.0000000000000000e+00 
9.0230513190840411e-03 6.7634429893436024e-03 2.9028676557939912e-09 
5.4978244038400050e-03 5.1139387080551303e-03 1.9597840958347660e-09 
9.1901904994964589e-03 -7.3771876458023893e-03 0.0000000000000000e+00 
9.1901891961102961e-03 -7.3771949185997155e-03 0.0000000000000000e+00 
5.6185809808496972e-03 -5.6376944422892039e-03 0.0000000000000000e+00 
5.6185776088829176e-03 -5.6377333886117849e-03 0.0000000000000000e+00 
9.1901741275549689e-03 -7.3771771483835472e-03 2.0466118524696143e-09 
5.6185789996589727e-03 -5.6376986978337517e-03 3.1749207295356958e-09 
1.8916652206854970e-02 9.9622194933619256e-03 0.0000000000000000e+00 
1.8916659815502321e-02 9.9622166613439166e-03 0.0000000000000000e+00 
1.3496611596919544e-02 8.3942504952943392e-03 0.0000000000000000e+00 
1.3496623702761116e-02 8.3942483967595332e-03 0.0000000000000000e+00 
1.8916660733537958e-02 9.9622134141909117e-03 4.5408246218515916e-09 
1.3496617645453702e-02 8.3942505487775987e-03 -7.9682025559112099e-10 
1.8985357750611408e-02 -1.0737462779541528e-02 0.0000000000000000e+00 
1.8985355427089526e-02 -1.0737464002318634e-02 0.0000000000000000e+00 
1.3611932359026999e-02 -9.0704660498806527e-03 0.0000000000000000e+00 
1.3611934868381189e-02 -9.0704745325944393e-03 0.0000000000000000e+00 
1.8985348717711577e-02 -1.0737479074956414e-02 -1.9283875610613588e-09 
1.3611923294045966e-02 -9.0704708520798795e-03 -3.9797064195359813e-10 
3.2381842895843768e-02 1.2894921222770171e-02 0.0000000000000000e+00 
3.2381863117761027e-02 1.2894918239533718e-02 0.0000000000000000e+00 
2.5236148709372408e-02 1.1467984445618525e-02 0.0000000000000000e+00 
2.5236161046304779e-02 1.1467989948228468e-02 0.0000000000000000e+00 
3.2381865805926696e-02 1.2894921745904706e-02 1.0675086998182591e-08 
2.5236156375073190e-02 1.1467984172228491e-02 5.4046380726788992e-09 
3.2515056711700088e-02 -1.3861957410439269e-02 0.0000000000000000e+00 
3.2515068118948595e-02 -1.3861962918858097e-02 0.0000000000000000e+00 
2.5332675499067873e-02 -1.2349682500906638e-02 0.0000000000000000e+00 
2.5332681237161508e-02 -1.2349697120424221e-02 0.0000000000000000e+00 
3.2515072778776230e-02 -1.3861964997584714e-02 -3.6868784181113171e-09 
2.5332689363679842e-02 -1.2349702091697456e-02 -2.7518209392003113e-09 
4.8926496755393199e-02 1.5352213231804886e-02 0.0000000000000000e+00 
4.8926505583621320e-02 1.5352189285798500e-02 0.0000000000000000e+00 
4.0320192146146364e-02 1.4191943183653702e-02 0.0000000000000000e+00 
4.0320216588279341e-02 1.4191933502110380e-02 0.0000000000000000e+00 
4.8926503778482941e-02 1.5352196601782341e-02 5.4953183673772386e-09 
4.0320208559161484e-02 1.4191930216717073e-02 5.2995059704159615e-09 
4.9009617813212142e-02 -1.6515397651867835e-02 0.0000000000000000e+00 
4.9009609070016481e-02 -1.6515395737836530e-02 0.0000000000000000e+00 
4.0432580313938427e-02 -1.5244786857851682e-02 0.0000000000000000e+00 
4.0432581186343158e-02 -1.5244797842678074e-02 0.0000000000000000e+00 
4.9009603534366966e-02 -1.6515401770565173e-02 -5.4674120293398832e-10 
4.0432594249095802e-02 -1.5244795341877081e-02 -2.7663494100329161e-09 
6.7991829623968991e-02 1.7571513668628715e-02 0.0000000000000000e+00 
6.7991833543978530e-02 1.7571512906740604e-02 0.0000000000000000e+00 
5.8123223760302836e-02 1.6454151048275124e-02 0.0000000000000000e+00 
5.8123226529735908e-02 1.6454146201555137e-02 0.0000000000000000e+00 
6.7991838022339462e-02 1.7571524236807558e-02 8.6616843651356197e-09 
5.8123212447623029e-02 1.6454152557817740e-02 2.9213784215273713e-09 
6.8153104395642150e-02 -1.8978317429174670e-02 0.0000000000000000e+00 
6.8153112037932090e-02 -1.8978325244094905e-02 0.0000000000000000e+00 
5.8227284538986381e-02 -1.7754104905068860e-02 0.0000000000000000e+00 
5.8227278900595925e-02 -1.7754119471531837e-02 0.0000000000000000e+00 
6.8153116210964787e-02 -1.8978330919824593e-02 3.1732441629071536e-09 
5.8227286214077044e-02 -1.7754124998859866e-02 1.4978347885872744e-09 
8.9776812441040577e-02 1.9698595085074350e-02 0.0000000000000000e+00 
8.9776839099113992e-02 1.9698588893539974e-02 0.0000000000000000e+00 
7.8564828567641284e-02 1.8674041178906982e-02 0.0000000000000000e+00 
7.8564858903809459e-02 1.8674045887783181e-02 0.0000000000000000e+00 
8.9776834549547144e-02 1.9698590847594302e-02 1.1114710738227371e-08 
7.8564845028720381e-02 1.8674051833712749e-02 6.7488467679334226e-09 
8.9911257165562128e-02 -2.1192259699496167e-02 0.0000000000000000e+00 
8.9911276862204792e-02 -2.1192244153075829e-02 0.0000000000000000e+00 
7.8739060221168417e-02 -2.0134639913018143e-02 0.0000000000000000e+00 
7.8739085001636261e-02 -2.0134644448475965e-02 0.0000000000000000e+00 
8.9911265926543971e-02 -2.1192251899513306e-02 5.8039369950805187e-09 
7.8739077220142506e-02 -2.0134648193205075e-02 3.2504769100654910e-09 
1.1381456497261375e-01 2.1426426692417521e-02 0.0000000000000000e+00 
1.1381457613348606e-01 2.1426411780650120e-02 0.0000000000000000e+00 
1.0157404276774032e-01 2.0602463969525892e-02 0.0000000000000000e+00 
1.0157407864572246e-01 2.0602452532716392e-02 0.0000000000000000e+00 
1.1381455365104509e-01 2.1426426094888516e-02 5.5842254260207790e-09 
1.0157404621961383e-01 2.0602458468969159e-02 4.6620529064515167e-09 
1.1396762652443296e-01 -2.3024662221725424e-02 0.0000000000000000e+00 
1.1396762234417518e-01 -2.3024655076025961e-02 0.0000000000000000e+00 
1.0169367534099605e-01 -2.2141267131075990e-02 0.0000000000000000e+00 
1.0169368281988916e-01 -2.2141260470234004e-02 0.0000000000000000e+00 
1.1396761546003054e-01 -2.3024665065958957e-02 7.1414892774481677e-09 
1.0169368227460580e-01 -2.2141270109367967e-02 5.8077439936383782e-09 
1.3963136652976110e-01 2.2848401659999087e-02 0.0000000000000000e+00 
1.3963138072005032e-01 2.2848373923405225e-02 0.0000000000000000e+00 
1.2648131641047941e-01 2.2182651576504946e-02 0.0000000000000000e+00 
1.2648134574097655e-01 2.2182644205765822e-02 0.0000000000000000e+00 
1.3963137512535806e-01 2.2848390698376665e-02 1.1517493625060288e-09 
1.2648133333886150e-01 2.2182657411775608e-02 5.1413665413721767e-10 
1.3974876273916007e-01 -2.4611904440200991e-02 0.0000000000000000e+00 
1.3974876021856011e-01 -2.4611890169297785e-02 0.0000000000000000e+00 
1.2665224769395073e-01 -2.3842457794689128e-02 0.0000000000000000e+00 
1.2665224921814763e-01 -2.3842456515528895e-02 0.0000000000000000e+00 
1.3974875084095850e-01 -2.4611901457875632e-02 5.2631052495818769e-09 
1.2665225644861997e-01 -2.3842470118524382e-02 6.5306496196194650e-09 
1.6686773358872128e-01 2.4028979508668783e-02 0.0000000000000000e+00 
1.6686772128085620e-01 2.4028988711807496e-02 0.0000000000000000e+00 
1.5311169011318343e-01 2.3433706894280076e-02 0.0000000000000000e+00 
1.5311168725284180e-01 2.3433701247428475e-02 0.0000000000000000e+00 
1.6686773487032358e-01 2.4028980599030629e-02 6.9704705349863609e-09 
1.5311168622717905e-01 2.3433702511683363e-02 1.7833638893597553e-09 
1.6697695521523426e-01 -2.6034065039151719e-02 0.0000000000000000e+00 
1.6697693160944932e-01 -2.6034068833706056e-02 0.0000000000000000e+00 
1.5319069322483159e-01 -2.5337175207364761e-02 0.0000000000000000e+00 
1.5319067549499088e-01 -2.5337174095265147e-02 0.0000000000000000e+00 
1.6697695010925889e-01 -2.6034064505968582e-02 1.4175448144127887e-09 
1.5319069447478950e-01 -2.5337181445477301e-02 1.5908537757225560e-09 
1.9555352181021601e-01 2.5246772522329191e-02 0.0000000000000000e+00 
1.9555354975374739e-01 2.5246784491717508e-02 0.0000000000000000e+00 
1.8100728265540089e-01 2.4652054676906905e-02 0.0000000000000000e+00 
1.8100729762015225e-01 2.4652072999454044e-02 0.0000000000000000e+00 
1.9555354086409049e-01 2.5246773005409819e-02 9.5810221836880053e-09 
1.8100728571085223e-01 2.4652063152578466e-02 5.5126825145719247e-09 
1.9570680705409774e-01 -2.7256898143099742e-02 0.0000000000000000e+00 
1.9570681538966456e-01 -2.7256891227603483e-02 0.0000000000000000e+00 
1.8116723784400729e-01 -2.6689944658889204e-02 0.0000000000000000e+00 
1.8116723942854590e-01 -2.6689954870753957e-02 0.0000000000000000e+00 
1.9570681466136058e-01 -2.7256890074818397e-02 -1.4372886041182455e-09 
1.8116724334121007e-01 -2.6689948340343810e-02 -3.2145837937621539e-09 
2.2563130413938182e-01 2.6051988244873606e-02 0.0000000000000000e+00 
2.2563131084771565e-01 2.6051968807322929e-02 0.0000000000000000e+00 
2.1046401596281258e-01 2.5728601074426836e-02 0.0000000000000000e+00 
2.1046405125369921e-01 2.5728600314626419e-02 0.0000000000000000e+00 
2.2563130539195386e-01 2.6051969006212334e-02 7.1890492610965178e-09 
2.1046403778936046e-01 2.5728594189024543e-02 5.8436550425494752e-09 
2.2571341464804831e-01 -2.8037261376288654e-02 0.0000000000000000e+00 
2.2571340131740672e-01 -2.8037244965926141e-02 0.0000000000000000e+00 
2.1056465610483249e-01 -2.7706855174820175e-02 0.0000000000000000e+00 
2.1056465885268141e-01 -2.7706845849716548e-02 0.0000000000000000e+00 
2.2571340227014669e-01 -2.8037257517185922e-02 3.8016398028094537e-09 
2.1056466209351185e-01 -2.7706856446559704e-02 -8.6305471710203576e-10 
2.5614802719417257e-01 2.6257758791372189e-02 0.0000000000000000e+00 
2.5614802131565068e-01 2.6257749332627901e-02 0.0000000000000000e+00 
2.4088098655680129e-01 2.6209301686365122e-02 0.0000000000000000e+00 
2.4088099034347887e-01 2.6209290173603558e-02 0.0000000000000000e+00 
2.5614801672150339e-01 2.6257753065233532e-02 2.1464450433651738e-09 
2.4088097321996638e-01 2.6209290845060983e-02 3.1414659442950803e-09 
2.5620912169470522e-01 -2.8279734588124987e-02 0.0000000000000000e+00 
2.5620912069157431e-01 -2.8279736878624291e-02 0.0000000000000000e+00 
2.4096933244519547e-01 -2.8208688485879964e-02 0.0000000000000000e+00 
2.4096932347144781e-01 -2.8208687369970870e-02 0.0000000000000000e+00 
2.5620912032583854e-01 -2.8279741900421533e-02 4.0827473328895148e-09 
2.4096933068149837e-01 -2.8208696792579355e-02 3.8817816766529194e-09 
2.8660263663686247e-01 2.6092221973993586e-02 0.0000000000000000e+00 
2.8660266508134091e-01 2.6092216533294084e-02 0.0000000000000000e+00 
2.7143157456800554e-01 2.6200206070342888e-02 0.0000000000000000e+00 
2.7143158954364976e-01 2.6200205613102247e-02 0.0000000000000000e+00 
2.8660265185228917e-01 2.6092216120975849e-02 -1.2607183530665311e-09 
2.7143157675591117e-01 2.6200205405791141e-02 -9.7605258203776551e-10 
2.8659725127847202e-01 -2.8200060848574120e-02 0.0000000000000000e+00 
2.8659724319165114e-01 -2.8200055977200385e-02 0.0000000000000000e+00 
2.7142847974045659e-01 -2.8269778554382688e-02 0.0000000000000000e+00 
2.7142848453928686e-01 -2.8269781034796170e-02 0.0000000000000000e+00 
2.8659725313329676e-01 -2.8200062488898926e-02 4.9259117894180469e-09 
2.7142849488837073e-01 -2.8269788623562955e-02 2.3611282931926948e-09 
3.1661126984681898e-01 2.5946716845047457e-02 0.0000000000000000e+00 
3.1661125287576353e-01 2.5946692976799211e-02 0.0000000000000000e+00 
3.0163398944402897e-01 2.6007976050305720e-02 0.0000000000000000e+00 
3.0163401125493627e-01 2.6007956942625841e-02 0.0000000000000000e+00 
3.1661126265834616e-01 2.5946704718715165e-02 -7.5130634222309434e-09 
3.0163399246515699e-01 2.6007964459899550e-02 -5.1633972284921664e-09 
3.1667892633253525e-01 -2.7954513565126862e-02 0.0000000000000000e+00 
3.1667892950407384e-01 -2.7954494618919270e-02 0.0000000000000000e+00 
3.0168054487826701e-01 -2.8091912575286447e-02 0.0000000000000000e+00 
3.0168054691450735e-01 -2.8091905473120477e-02 0.0000000000000000e+00 
3.1667893626975618e-01 -2.7954501744488817e-02 6.7873165645911912e-09 
3.0168055796410809e-01 -2.8091917418300971e-02 4.9556066267618142e-09 
3.4634435581557488e-01 2.5851819785751781e-02 0.0000000000000000e+00 
3.4634434620397819e-01 2.5851811218171858e-02 0.0000000000000000e+00 
3.3151608650843456e-01 2.5885393937309376e-02 0.0000000000000000e+00 
3.3151607044883802e-01 2.5885377729120508e-02 0.0000000000000000e+00 
3.4634433033965484e-01 2.5851821133477837e-02 -1.9678497769022912e-10 
3.3151607267456396e-01 2.5885385441796402e-02 -7.2837791252251995e-09 
3.4639809385905551e-01 -2.7758122036809663e-02 0.0000000000000000e+00 
3.4639807586369992e-01 -2.7758107501105158e-02 0.0000000000000000e+00 
3.3158006017890262e-01 -2.7826073529928191e-02 0.0000000000000000e+00 
3.3158004685632120e-01 -2.7826058653494863e-02 0.0000000000000000e+00 
3.4639808865683253e-01 -2.7758116351136848e-02 7.3975827954438971e-09 
3.3158005985438693e-01 -2.7826071386288273e-02 6.3178161927660806e-09 
3.7610616836986421e-01 2.5874899442324874e-02 0.0000000000000000e+00 
3.7610617046473660e-01 2.5874885351282701e-02 0.0000000000000000e+00 
3.6119792830717157e-01 2.5861564540050560e-02 0.0000000000000000e+00 
3.6119793035182080e-01 2.5861555668217958e-02 0.0000000000000000e+00 
3.7610617819386094e-01 2.5874897243772947e-02 1.9671001704288709e-09 
3.6119792523168320e-01 2.5861574140836181e-02 -4.1966689104525092e-10 
3.7610143616238623e-01 -2.7845629738338068e-02 0.0000000000000000e+00 
3.7610143340122310e-01 -2.7845624753575167e-02 0.0000000000000000e+00 
3.6123053186428367e-01 -2.7781755224094158e-02 0.0000000000000000e+00 
3.6123052192015936e-01 -2.7781748841022059e-02 0.0000000000000000e+00 
3.7610143387022466e-01 -2.7845617324584369e-02 -9.9269980346345778e-10 
3.6123053242487319e-01 -2.7781752221005394e-02 2.1440708697683333e-10 
4.0594396467151250e-01 2.5876522207096412e-02 0.0000000000000000e+00 
4.0594721578573945e-01 7.9673608599070619e-03 0.0000000000000000e+00 
4.0594393557644654e-01 2.5876489044838635e-02 0.0000000000000000e+00 
4.0594720207706514e-01 7.9673471199753140e-03 0.0000000000000000e+00 
3.9102459373723109e-01 2.5874933633165821e-02 0.0000000000000000e+00 
4.0594572609893353e-01 1.6920726161381829e-02 0.0000000000000000e+00 
3.9102458552882302e-01 2.5874907752208041e-02 0.0000000000000000e+00 
4.0594570929195040e-01 1.6920703794528834e-02 0.0000000000000000e+00 
4.0594397596864384e-01 2.5876521581236642e-02 4.2630340345267776e-09 
4.0594722323417554e-01 7.9673545633085797e-03 -7.5586072737784134e-10 
3.9102459705169845e-01 2.5874924540171082e-02 1.4182460972508927e-09 
4.0594573200723316e-01 1.6920715523028020e-02 4.0426976205342233e-09 
4.0596466494478944e-01 -9.9515837263492585e-03 0.0000000000000000e+00 
4.0596466239088536e-01 -9.9515863648173518e-03 0.0000000000000000e+00 
4.0595189566822765e-01 -9.7841180350540435e-04 0.0000000000000000e+00 
4.0595188478761501e-01 -9.7842036758557529e-04 0.0000000000000000e+00 
4.0596466766559763e-01 -9.9515731701972469e-03 -3.0437656907433655e-09 
4.0595189791653580e-01 -9.7841238730238386e-04 -6.9899211652999534e-10 
4.0597786570554883e-01 -2.7976162086631257e-02 0.0000000000000000e+00 
4.0597785095190420e-01 -2.7976143642748530e-02 0.0000000000000000e+00 
3.9099610272160734e-01 -2.7927459816465661e-02 0.0000000000000000e+00 
4.0597297795542053e-01 -1.8960827825084937e-02 0.0000000000000000e+00 
3.9099611200995188e-01 -2.7927438175547846e-02 0.0000000000000000e+00 
4.0597296799168170e-01 -1.8960819842399036e-02 0.0000000000000000e+00 
4.0597785654676699e-01 -2.7976146233681148e-02 -5.4607425026066974e-09 
3.9099610039988852e-01 -2.7927444468816759e-02 -5.4781590438370947e-09 
4.0597297261114168e-01 -1.8960815733909363e-02 -3.7188255902405636e-09 

VECTORS Stress float
2.1698702077999275e+02 -1.0849510009247751e+01 -1.8867037093808822e-12 
2.1801023346009868e+02 -1.5902505910454920e+01 -2.2004302893262479e-12 
2.1698702077999275e+02 -1.0849510009247751e+01 -1.8867037093808822e-12 
2.1801023346009868e+02 -1.5902505910454920e+01 -2.2004302893262479e-12 
2.1807032763769661e+02 -1.1272494424524211e+01 -1.9732008069330888e-12 
2.1807032763769661e+02 -1.1272494424524211e+01 -1.9732008069330888e-12 
2.1698702077999275e+02 -1.0849510009247751e+01 -1.8867037093808822e-12 
2.1801023346009868e+02 -1.5902505910454920e+01 -2.2004302893262479e-12 
2.1807032763769661e+02 -1.1272494424524211e+01 -1.9732008069330888e-12 
-9.2092832937267588e+01 9.2936645841075460e+00 -8.8843894003331372e-13 
-9.5517055425777016e+01 7.5085372585633650e+00 -8.3955890669989263e-13 
-9.2092832937267588e+01 9.2936645841075460e+00 -8.8843894003331372e-13 
-9.5517055425777016e+01 7.5085372585633650e+00 -8.3955890669989263e-13 
-9.4930987239681144e+01 6.1618133540275721e+00 -8.7782055949790257e-13 
-9.4930987239681144e+01 6.1618133540275721e+00 -8.7782055949790257e-13 
-9.2092832937267588e+01 9.2936645841075460e+00 -8.8843894003331372e-13 
-9.5517055425777016e+01 7.5085372585633650e+00 -8.3955890669989263e-13 
-9.4930987239681144e+01 6.1618133540275721e+00 -8.7782055949790257e-13 
2.1664649393827210e+02 -2.9558020964414027e+01 -2.4819086201007254e-12 
2.1664649393827210e+02 -2.9558020964414027e+01 -2.4819086201007254e-12 
2.1745753496964335e+02 -2.2616336131511162e+01 -2.4316539965037821e-12 
2.1745753496964335e+02 -2.2616336131511162e+01 -2.4316539965037821e-12 
2.1664649393827210e+02 -2.9558020964414027e+01 -2.4819086201007254e-12 
2.1745753496964335e+02 -2.2616336131511162e+01 -2.4316539965037821e-12 
-9.4387172717957128e+01 1.4677253815594213e+01 -1.4320930154657587e-13 
-9.4387172717957128e+01 1.4677253815594213e+01 -1.4320930154657587e-13 
-9.5014798119051989e+01 1.1052412305924463e+01 -6.7292714349426408e-13 
-9.5014798119051989e+01 1.1052412305924463e+01 -6.7292714349426408e-13 
-9.4387172717957128e+01 1.4677253815594213e+01 -1.4320930154657587e-13 
-9.5014798119051989e+01 1.1052412305924463e+01 -6.7292714349426408e-13 
2.1412445289903144e+02 -4.2780159749364884e+01 -2.2141982516825466e-12 
2.1412445289903144e+02 -4.2780159749364884e+01 -2.2141982516825466e-12 
2.1547597869816241e+02 -3.6328193061969614e+01 -2.3406475137204294e-12 
2.1547597869816241e+02 -3.6328193061969614e+01 -2.3406475137204294e-12 
2.1412445289903144e+02 -4.2780159749364884e+01 -2.2141982516825466e-12 
2.1547597869816241e+02 -3.6328193061969614e+01 -2.3406475137204294e-12 
-9.3540817910642090e+01 2.0942804536788572e+01 1.6488832065331666e-12 
-9.3540817910642090e+01 2.0942804536788572e+01 1.6488832065331666e-12 
-9.3877755771180546e+01 1.7933554955960062e+01 7.6819081197092252e-13 
-9.3877755771180546e+01 1.7933554955960062e+01 7.6819081197092252e-13 
-9.3540817910642090e+01 2.0942804536788572e+01 1.6488832065331666e-12 
-9.3877755771180546e+01 1.7933554955960062e+01 7.6819081197092252e-13 
2.0999774739166151e+02 -5.4238567669866370e+01 -2.2592483743658986e-12 
2.0999774739166151e+02 -5.4238567669866370e+01 -2.2592483743658986e-12 
2.1214754070183676e+02 -4.8728350871823750e+01 -2.2399804923459704e-12 
2.1214754070183676e+02 -4.8728350871823750e+01 -2.2399804923459704e-12 
2.0999774739166151e+02 -5.4238567669866370e+01 -2.2592483743658986e-12 
2.1214754070183676e+02 -4.8728350871823750e+01 -2.2399804923459704e-12 
-9.2487326217344844e+01 2.6402081190280114e+01 2.3396377194086648e-12 
-9.2487326217344844e+01 2.6402081190280114e+01 2.3396377194086648e-12 
-9.2954214559729280e+01 2.3720626116009498e+01 2.1069209035381320e-12 
-9.2954214559729280e+01 2.3720626116009498e+01 2.1069209035381320e-12 
-9.2487326217344844e+01 2.6402081190280114e+01 2.3396377194086648e-12 
-9.2954214559729280e+01 2.3720626116009498e+01 2.1069209035381320e-12 
2.0500958511924159e+02 -6.2873637909068748e+01 -9.9365927323122412e-13 
2.0500958511924159e+02 -6.2873637909068748e+01 -9.9365927323122412e-13 
2.0759883700402133e+02 -5.8883427493125964e+01 -1.7883363290969314e-12 
2.0759883700402133e+02 -5.8883427493125964e+01 -1.7883363290969314e-12 
2.0500958511924159e+02 -6.2873637909068748e+01 -9.9365927323122412e-13 
2.0759883700402133e+02 -5.8883427493125964e+01 -1.7883363290969314e-12 
-9.1538294570110793e+01 3.0787679177985410e+01 1.8978736100978347e-12 
-9.1538294570110793e+01 3.0787679177985410e+01 1.8978736100978347e-12 
-9.1999827622465091e+01 2.8713462631399125e+01 2.2946107216462068e-12 
-9.1999827622465091e+01 2.8713462631399125e+01 2.2946107216462068e-12 
-9.1538294570110793e+01 3.0787679177985410e+01 1.8978736100978347e-12 
-9.1999827622465091e+01 2.8713462631399125e+01 2.2946107216462068e-12 
1.9901955931201246e+02 -7.0311193482348244e+01 -6.6370747266439371e-14 
1.9901955931201246e+02 -7.0311193482348244e+01 -6.6370747266439371e-14 
2.0222543338286960e+02 -6.6669083735249387e+01 -3.7620099807391047e-13 
2.0222543338286960e+02 -6.6669083735249387e+01 -3.7620099807391047e-13 
1.9901955931201246e+02 -7.0311193482348244e+01 -6.6370747266439371e-14 
2.0222543338286960e+02 -6.6669083735249387e+01 -3.7620099807391047e-13 
-9.0557663351059318e+01 3.4773644065185181e+01 -1.1344277496373447e-12 
-9.0557663351059318e+01 3.4773644065185181e+01 -1.1344277496373447e-12 
-9.1128789510057686e+01 3.2840134651509288e+01 8.6203085554440929e-13 
-9.1128789510057686e+01 3.2840134651509288e+01 8.6203085554440929e-13 
-9.0557663351059318e+01 3.4773644065185181e+01 -1.1344277496373447e-12 
-9.1128789510057686e+01 3.2840134651509288e+01 8.6203085554440929e-13 
1.9241389020257748e+02 -7.6529979442156218e+01 6.2379605098658653e-13 
1.9241389020257748e+02 -7.6529979442156218e+01 6.2379605098658653e-13 
1.9575985971512682e+02 -7.3793103974507176e+01 1.9362604330172969e-13 
1.9575985971512682e+02 -7.3793103974507176e+01 1.9362604330172969e-13 
1.9241389020257748e+02 -7.6529979442156218e+01 6.2379605098658653e-13 
1.9575985971512682e+02 -7.3793103974507176e+01 1.9362604330172969e-13 
-8.9579403991123172e+01 3.8332721891850269e+01 -4.7522268216464014e-12 
-8.9579403991123172e+01 3.8332721891850269e+01 -4.7522268216464014e-12 
-9.0085028118731771e+01 3.6744698954606974e+01 -3.2562855338571244e-12 
-9.0085028118731771e+01 3.6744698954606974e+01 -3.2562855338571244e-12 
-8.9579403991123172e+01 3.8332721891850269e+01 -4.7522268216464014e-12 
-9.0085028118731771e+01 3.6744698954606974e+01 -3.2562855338571244e-12 
1.8576140863402907e+02 -8.0859194106642462e+01 1.6717582991016071e-12 
1.8576140863402907e+02 -8.0859194106642462e+01 1.6717582991016071e-12 
1.8908463043302345e+02 -7.8881399925297046e+01 1.2482156104122519e-12 
1.8908463043302345e+02 -7.8881399925297046e+01 1.2482156104122519e-12 
1.8576140863402907e+02 -8.0859194106642462e+01 1.6717582991016071e-12 
1.8908463043302345e+02 -7.8881399925297046e+01 1.2482156104122519e-12 
-8.8727742734434287e+01 4.1120291944885139e+01 -5.1260708197124825e-12 
-8.8727742734434287e+01 4.1120291944885139e+01 -5.1260708197124825e-12 
-8.9130373593972990e+01 3.9826677783580635e+01 -5.5544098021465877e-12 
-8.9130373593972990e+01 3.9826677783580635e+01 -5.5544098021465877e-12 
-8.8727742734434287e+01 4.1120291944885139e+01 -5.1260708197124825e-12 
-8.9130373593972990e+01 3.9826677783580635e+01 -5.5544098021465877e-12 
1.7921619103125181e+02 -8.3701877164822690e+01 1.1422455497164137e-12 
1.7921619103125181e+02 -8.3701877164822690e+01 1.1422455497164137e-12 
1.8243230814478170e+02 -8.2393687240840791e+01 1.6193506728610894e-12 
1.8243230814478170e+02 -8.2393687240840791e+01 1.6193506728610894e-12 
1.7921619103125181e+02 -8.3701877164822690e+01 1.1422455497164137e-12 
1.8243230814478170e+02 -8.2393687240840791e+01 1.6193506728610894e-12 
-8.7942795533787603e+01 4.3211964587500461e+01 -1.2594810476846439e-12 
-8.7942795533787603e+01 4.3211964587500461e+01 -1.2594810476846439e-12 
-8.8323595700653868e+01 4.2131115053214216e+01 -3.3668747653132692e-12 
-8.8323595700653868e+01 4.2131115053214216e+01 -3.3668747653132692e-12 
-8.7942795533787603e+01 4.3211964587500461e+01 -1.2594810476846439e-12 
-8.8323595700653868e+01 4.2131115053214216e+01 -3.3668747653132692e-12 
1.7304785732508981e+02 -8.4848934077483136e+01 -2.0652568812173563e-12 
1.7304785732508981e+02 -8.4848934077483136e+01 -2.0652568812173563e-12 
1.7611913726954344e+02 -8.4306862962413561e+01 -3.5150664939872337e-13 
1.7611913726954344e+02 -8.4306862962413561e+01 -3.5150664939872337e-13 
1.7304785732508981e+02 -8.4848934077483136e+01 -2.0652568812173563e-12 
1.7611913726954344e+02 -8.4306862962413561e+01 -3.5150664939872337e-13 
-8.6989803874574818e+01 4.4955590559095526e+01 2.8449079457585711e-12 
-8.6989803874574818e+01 4.4955590559095526e+01 2.8449079457585711e-12 
-8.7465314339896850e+01 4.4045886552024513e+01 9.4702394887163840e-13 
-8.7465314339896850e+01 4.4045886552024513e+01 9.4702394887163840e-13 
-8.6989803874574818e+01 4.4955590559095526e+01 2.8449079457585711e-12 
-8.7465314339896850e+01 4.4045886552024513e+01 9.4702394887163840e-13 
1.6624434760333747e+02 -8.6111675657277829e+01 -2.7749481887541764e-12 
1.6624434760333747e+02 -8.6111675657277829e+01 -2.7749481887541764e-12 
1.6973127615839689e+02 -8.5443384715866614e+01 -2.8540936294946366e-12 
1.6973127615839689e+02 -8.5443384715866614e+01 -2.8540936294946366e-12 
1.6624434760333747e+02 -8.6111675657277829e+01 -2.7749481887541764e-12 
1.6973127615839689e+02 -8.5443384715866614e+01 -2.8540936294946366e-12 
-8.5873507924507294e+01 4.6323784342194813e+01 3.3589701634178488e-12 
-8.5873507924507294e+01 4.6323784342194813e+01 3.3589701634178488e-12 
-8.6450849759233733e+01 4.5700731408485808e+01 3.5986547065279427e-12 
-8.6450849759233733e+01 4.5700731408485808e+01 3.5986547065279427e-12 
-8.5873507924507294e+01 4.6323784342194813e+01 3.3589701634178488e-12 
-8.6450849759233733e+01 4.5700731408485808e+01 3.5986547065279427e-12 
1.5988969137010292e+02 -8.6190056281848683e+01 -9.8352853266492042e-13 
1.5988969137010292e+02 -8.6190056281848683e+01 -9.8352853266492042e-13 
1.6290369370414078e+02 -8.6540998941508406e+01 -2.2130284818117183e-12 
1.6290369370414078e+02 -8.6540998941508406e+01 -2.2130284818117183e-12 
1.5988969137010292e+02 -8.6190056281848683e+01 -9.8352853266492042e-13 
1.6290369370414078e+02 -8.6540998941508406e+01 -2.2130284818117183e-12 
-8.4850306148900358e+01 4.6689206050851226e+01 8.1219107050440323e-13 
-8.4850306148900358e+01 4.6689206050851226e+01 8.1219107050440323e-13 
-8.5338172748682723e+01 4.6776815459574664e+01 2.4827763609280406e-12 
-8.5338172748682723e+01 4.6776815459574664e+01 2.4827763609280406e-12 
-8.4850306148900358e+01 4.6689206050851226e+01 8.1219107050440323e-13 
-8.5338172748682723e+01 4.6776815459574664e+01 2.4827763609280406e-12 
1.5447740901589725e+02 -8.4459168195900020e+01 1.3266859156034762e-12 
1.5447740901589725e+02 -8.4459168195900020e+01 1.3266859156034762e-12 
1.5706834265743760e+02 -8.5633680416265179e+01 3.3973348339386474e-13 
1.5706834265743760e+02 -8.5633680416265179e+01 3.3973348339386474e-13 
1.5447740901589725e+02 -8.4459168195900020e+01 1.3266859156034762e-12 
1.5706834265743760e+02 -8.5633680416265179e+01 3.3973348339386474e-13 
-8.3820442413720571e+01 4.6067816198151604e+01 -1.6625985434499830e-12 
-8.3820442413720571e+01 4.6067816198151604e+01 -1.6625985434499830e-12 
-8.4353786019258109e+01 4.6579060110002956e+01 -8.2140304333563588e-13 
-8.4353786019258109e+01 4.6579060110002956e+01 -8.2140304333563588e-13 
-8.3820442413720571e+01 4.6067816198151604e+01 -1.6625985434499830e-12 
-8.4353786019258109e+01 4.6579060110002956e+01 -8.2140304333563588e-13 
1.4966736193824909e+02 -8.1339781031893835e+01 2.7003777549269084e-12 
1.4966736193824909e+02 -8.1339781031893835e+01 2.7003777549269084e-12 
1.5201378548706134e+02 -8.3027819915745567e+01 2.1059663894344003e-12 
1.5201378548706134e+02 -8.3027819915745567e+01 2.1059663894344003e-12 
1.4966736193824909e+02 -8.1339781031893835e+01 2.7003777549269084e-12 
1.5201378548706134e+02 -8.3027819915745567e+01 2.1059663894344003e-12 
-8.2641014396069238e+01 4.5071537774933631e+01 -2.5042190164106400e-12 
-8.2641014396069238e+01 4.5071537774933631e+01 -2.5042190164106400e-12 
-8.3261494719606731e+01 4.5519673392593859e+01 -2.0861512152101557e-12 
-8.3261494719606731e+01 4.5519673392593859e+01 -2.0861512152101557e-12 
-8.2641014396069238e+01 4.5071537774933631e+01 -2.5042190164106400e-12 
-8.3261494719606731e+01 4.5519673392593859e+01 -2.0861512152101557e-12 
1.4391297814415327e+02 -7.7214383809925266e+01 2.9549534910843501e-12 
1.4391297814415327e+02 -7.7214383809925266e+01 2.9549534910843501e-12 
1.4723269796502296e+02 -7.9326529100060043e+01 3.0289488859298990e-12 
1.4723269796502296e+02 -7.9326529100060043e+01 3.0289488859298990e-12 
1.4391297814415327e+02 -7.7214383809925266e+01 2.9549534910843501e-12 
1.4723269796502308e+02 -7.9326529100060270e+01 3.0289488859298893e-12 
-8.1304372326347050e+01 4.3718353632228400e+01 -3.3121929373430998e-12 
-8.1304372326347050e+01 4.3718353632228400e+01 -3.3121929373430998e-12 
-8.1975359373705203e+01 4.4583658393040650e+01 -2.9952505853762297e-12 
-8.1975359373705203e+01 4.4583658393040650e+01 -2.9952505853762297e-12 
-8.1304372326347050e+01 4.3718353632228400e+01 -3.3121929373430998e-12 
-8.1975359373705487e+01 4.4583658393040878e+01 -2.9952505853761876e-12 
1.3429361675963492e+02 -7.2116862067219017e+01 6.8624259058307581e-13 
1.3429361675963492e+02 -7.2116862067219017e+01 6.8624259058307581e-13 
1.3864413298787781e+02 -7.4619565318672699e+01 1.9183050339445250e-12 
1.3864413298787781e+02 -7.4619565318672699e+01 1.9183050339445250e-12 
1.3429361675963492e+02 -7.2116862067219017e+01 6.8624259058307581e-13 
1.3864413298787781e+02 -7.4619565318672699e+01 1.9183050339445250e-12 
-7.9588739683037247e+01 4.1062470069508265e+01 -2.1484387077565168e-12 
-7.9588739683037247e+01 4.1062470069508265e+01 -2.1484387077565168e-12 
-8.0385665427881094e+01 4.1561388086553961e+01 -2.8891455895335015e-12 
-8.0385665427881094e+01 4.1561388086553961e+01 -2.8891455895335015e-12 
-7.9588739683037247e+01 4.1062470069508265e+01 -2.1484387077565168e-12 
-8.0385665427881094e+01 4.1561388086553961e+01 -2.8891455895335015e-12 
1.3946507422251665e+02 -6.9610319174907431e+01 -6.3924303601836134e-13 
1.3946507422251665e+02 -6.9610319174907431e+01 -6.3924303601836134e-13 
1.3801251526240890e+02 -7.0838602606623340e+01 -1.8614747049885603e-13 
1.3801251526240890e+02 -7.0838602606623340e+01 -1.8614747049885603e-13 
1.3946507422251665e+02 -6.9610319174907431e+01 -6.3924303601836134e-13 
1.3801251526240887e+02 -7.0838602606623112e+01 -1.8614747049884634e-13 
-8.0376999609726937e+01 5.6346943482052382e+01 -1.4982449656524705e-13 
-8.0376999609726937e+01 5.6346943482052382e+01 -1.4982449656524705e-13 
-7.9736235829390424e+01 4.9251164041746563e+01 -1.1793079607974690e-12 
-7.9736235829390424e+01 4.9251164041746563e+01 -1.1793079607974690e-12 
-8.0376999609726937e+01 5.6346943482052382e+01 -1.4982449656524705e-13 
-7.9736235829390267e+01 4.9251164041746165e+01 -1.1793079607974428e-12 
2.6299343462697379e+01 -3.8111234410899442e+01 -1.2048926238425571e-13 
-2.5331497459269144e+01 -3.3784523214258627e+01 1.3941214345412615e-14 
2.6299343462697379e+01 -3.8111234410899442e+01 -1.2048926238425571e-13 
-2.5331497459269144e+01 -3.3784523214258627e+01 1.3941214345412615e-14 
1.0552708943966704e+02 -5.9174324490542858e+01 -6.4473403403515219e-13 
-1.4000429048401571e+01 -2.6241853174088817e+01 9.8184210804074464e-17 
1.0552708943966704e+02 -5.9174324490542858e+01 -6.4473403403515219e-13 
-1.4000429048401571e+01 -2.6241853174088817e+01 9.8184210804074464e-17 
2.6299343462697379e+01 -3.8111234410899442e+01 -1.2048926238425571e-13 
-2.5331497459269144e+01 -3.3784523214258627e+01 1.3941214345412615e-14 
1.0552708943966704e+02 -5.9174324490542858e+01 -6.4473403403515219e-13 
-1.4000429048401571e+01 -2.6241853174088817e+01 9.8184210804074464e-17 
-2.6139833063017733e+01 -6.0328776375540514e+01 -2.0523943353161769e-14 
-2.6139833063017733e+01 -6.0328776375540514e+01 -2.0523943353161769e-14 
-2.5827189191655080e+01 -4.7896096823221995e+01 -8.8320175645272238e-17 
-2.5827189191655080e+01 -4.7896096823221995e+01 -8.8320175645272238e-17 
-2.6139833063017733e+01 -6.0328776375540514e+01 -2.0523943353161769e-14 
-2.5827189191655080e+01 -4.7896096823221995e+01 -8.8320175645272238e-17 
-6.2253427639951475e+01 -3.9486160765923614e+01 1.6284930896463154e-13 
-6.2253427639951475e+01 -3.9486160765923614e+01 1.6284930896463154e-13 
-7.4461326994802533e+01 3.0358508192798901e+01 4.1708429464304540e-13 
-3.4072251727280964e+01 -6.2690827940256625e+01 -8.2255006085174408e-17 
-7.4461326994802533e+01 3.0358508192798901e+01 4.1708429464304540e-13 
-3.4072251727280964e+01 -6.2690827940256625e+01 -8.2255006085174408e-17 
-6.2253427639951475e+01 -3.9486160765923614e+01 1.6284930896463154e-13 
-7.4461326994802533e+01 3.0358508192798901e+01 4.1708429464304540e-13 
-3.4072251727280900e+01 -6.2690827940256654e+01 -8.2255006091232860e-17 

