# vtk DataFile Version 2.0

ASCII

DATASET UNSTRUCTURED_GRID

POINTS 237 float 

-5.0000000000000003e-02  0.0000000000000000e+00  0.0000000000000000e+00
-5.0000000000000003e-02  5.5555555555555552e-02  0.0000000000000000e+00
-5.0000000000000003e-02  0.0000000000000000e+00  2.9999999999999999e-01
-5.0000000000000003e-02  5.5555555555555552e-02  2.9999999999999999e-01
-5.0000000000000003e-02  2.7777777777777776e-02  0.0000000000000000e+00
-5.0000000000000003e-02  2.7777777777777776e-02  2.9999999999999999e-01
-5.0000000000000003e-02  0.0000000000000000e+00  1.4999999999999999e-01
-5.0000000000000003e-02  5.5555555555555552e-02  1.4999999999999999e-01
-5.0000000000000003e-02  2.7777777777777776e-02  1.4999999999999999e-01
5.0000000000000003e-02  0.0000000000000000e+00  0.0000000000000000e+00
5.0000000000000003e-02  5.5555555555555552e-02  0.0000000000000000e+00
5.0000000000000003e-02  0.0000000000000000e+00  2.9999999999999999e-01
5.0000000000000003e-02  5.5555555555555552e-02  2.9999999999999999e-01
5.0000000000000003e-02  2.7777777777777776e-02  0.0000000000000000e+00
5.0000000000000003e-02  2.7777777777777776e-02  2.9999999999999999e-01
5.0000000000000003e-02  0.0000000000000000e+00  1.4999999999999999e-01
5.0000000000000003e-02  5.5555555555555552e-02  1.4999999999999999e-01
5.0000000000000003e-02  2.7777777777777776e-02  1.4999999999999999e-01
-5.0000000000000003e-02  1.1111111111111110e-01  0.0000000000000000e+00
-5.0000000000000003e-02  1.1111111111111110e-01  2.9999999999999999e-01
-5.0000000000000003e-02  8.3333333333333329e-02  0.0000000000000000e+00
-5.0000000000000003e-02  8.3333333333333329e-02  2.9999999999999999e-01
-5.0000000000000003e-02  1.1111111111111110e-01  1.4999999999999999e-01
-5.0000000000000003e-02  8.3333333333333329e-02  1.4999999999999999e-01
5.0000000000000003e-02  1.1111111111111110e-01  0.0000000000000000e+00
5.0000000000000003e-02  1.1111111111111110e-01  2.9999999999999999e-01
5.0000000000000003e-02  8.3333333333333329e-02  0.0000000000000000e+00
5.0000000000000003e-02  8.3333333333333329e-02  2.9999999999999999e-01
5.0000000000000003e-02  1.1111111111111110e-01  1.4999999999999999e-01
5.0000000000000003e-02  8.3333333333333329e-02  1.4999999999999999e-01
-5.0000000000000003e-02  1.6666666666666666e-01  0.0000000000000000e+00
-5.0000000000000003e-02  1.6666666666666666e-01  2.9999999999999999e-01
-5.0000000000000003e-02  1.3888888888888890e-01  0.0000000000000000e+00
-5.0000000000000003e-02  1.3888888888888890e-01  2.9999999999999999e-01
-5.0000000000000003e-02  1.6666666666666666e-01  1.4999999999999999e-01
-5.0000000000000003e-02  1.3888888888888890e-01  1.4999999999999999e-01
5.0000000000000003e-02  1.6666666666666666e-01  0.0000000000000000e+00
5.0000000000000003e-02  1.6666666666666666e-01  2.9999999999999999e-01
5.0000000000000003e-02  1.3888888888888890e-01  0.0000000000000000e+00
5.0000000000000003e-02  1.3888888888888890e-01  2.9999999999999999e-01
5.0000000000000003e-02  1.6666666666666666e-01  1.4999999999999999e-01
5.0000000000000003e-02  1.3888888888888890e-01  1.4999999999999999e-01
-5.0000000000000003e-02  2.2222222222222221e-01  0.0000000000000000e+00
-5.0000000000000003e-02  2.2222222222222221e-01  2.9999999999999999e-01
-5.0000000000000003e-02  1.9444444444444442e-01  0.0000000000000000e+00
-5.0000000000000003e-02  1.9444444444444442e-01  2.9999999999999999e-01
-5.0000000000000003e-02  2.2222222222222221e-01  1.4999999999999999e-01
-5.0000000000000003e-02  1.9444444444444442e-01  1.4999999999999999e-01
5.0000000000000003e-02  2.2222222222222221e-01  0.0000000000000000e+00
5.0000000000000003e-02  2.2222222222222221e-01  2.9999999999999999e-01
5.0000000000000003e-02  1.9444444444444442e-01  0.0000000000000000e+00
5.0000000000000003e-02  1.9444444444444442e-01  2.9999999999999999e-01
5.0000000000000003e-02  2.2222222222222221e-01  1.4999999999999999e-01
5.0000000000000003e-02  1.9444444444444442e-01  1.4999999999999999e-01
-5.0000000000000003e-02  2.7777777777777779e-01  0.0000000000000000e+00
-5.0000000000000003e-02  2.7777777777777779e-01  2.9999999999999999e-01
-5.0000000000000003e-02  2.5000000000000000e-01  0.0000000000000000e+00
-5.0000000000000003e-02  2.5000000000000000e-01  2.9999999999999999e-01
-5.0000000000000003e-02  2.7777777777777779e-01  1.4999999999999999e-01
-5.0000000000000003e-02  2.5000000000000000e-01  1.4999999999999999e-01
5.0000000000000003e-02  2.7777777777777779e-01  0.0000000000000000e+00
5.0000000000000003e-02  2.7777777777777779e-01  2.9999999999999999e-01
5.0000000000000003e-02  2.5000000000000000e-01  0.0000000000000000e+00
5.0000000000000003e-02  2.5000000000000000e-01  2.9999999999999999e-01
5.0000000000000003e-02  2.7777777777777779e-01  1.4999999999999999e-01
5.0000000000000003e-02  2.5000000000000000e-01  1.4999999999999999e-01
-5.0000000000000003e-02  3.3333333333333331e-01  0.0000000000000000e+00
-5.0000000000000003e-02  3.3333333333333331e-01  2.9999999999999999e-01
-5.0000000000000003e-02  3.0555555555555558e-01  0.0000000000000000e+00
-5.0000000000000003e-02  3.0555555555555558e-01  2.9999999999999999e-01
-5.0000000000000003e-02  3.3333333333333331e-01  1.4999999999999999e-01
-5.0000000000000003e-02  3.0555555555555558e-01  1.4999999999999999e-01
5.0000000000000003e-02  3.3333333333333331e-01  0.0000000000000000e+00
5.0000000000000003e-02  3.3333333333333331e-01  2.9999999999999999e-01
5.0000000000000003e-02  3.0555555555555558e-01  0.0000000000000000e+00
5.0000000000000003e-02  3.0555555555555558e-01  2.9999999999999999e-01
5.0000000000000003e-02  3.3333333333333331e-01  1.4999999999999999e-01
5.0000000000000003e-02  3.0555555555555558e-01  1.4999999999999999e-01
-5.0000000000000003e-02  3.8888888888888884e-01  0.0000000000000000e+00
-5.0000000000000003e-02  3.8888888888888884e-01  2.9999999999999999e-01
-5.0000000000000003e-02  3.6111111111111105e-01  0.0000000000000000e+00
-5.0000000000000003e-02  3.6111111111111105e-01  2.9999999999999999e-01
-5.0000000000000003e-02  3.8888888888888884e-01  1.4999999999999999e-01
-5.0000000000000003e-02  3.6111111111111105e-01  1.4999999999999999e-01
5.0000000000000003e-02  3.8888888888888884e-01  0.0000000000000000e+00
5.0000000000000003e-02  3.8888888888888884e-01  2.9999999999999999e-01
5.0000000000000003e-02  3.6111111111111105e-01  0.0000000000000000e+00
5.0000000000000003e-02  3.6111111111111105e-01  2.9999999999999999e-01
5.0000000000000003e-02  3.8888888888888884e-01  1.4999999999999999e-01
5.0000000000000003e-02  3.6111111111111105e-01  1.4999999999999999e-01
-5.0000000000000003e-02  4.4444444444444442e-01  0.0000000000000000e+00
-5.0000000000000003e-02  4.4444444444444442e-01  2.9999999999999999e-01
-5.0000000000000003e-02  4.1666666666666663e-01  0.0000000000000000e+00
-5.0000000000000003e-02  4.1666666666666663e-01  2.9999999999999999e-01
-5.0000000000000003e-02  4.4444444444444442e-01  1.4999999999999999e-01
-5.0000000000000003e-02  4.1666666666666663e-01  1.4999999999999999e-01
5.0000000000000003e-02  4.4444444444444442e-01  0.0000000000000000e+00
5.0000000000000003e-02  4.4444444444444442e-01  2.9999999999999999e-01
5.0000000000000003e-02  4.1666666666666663e-01  0.0000000000000000e+00
5.0000000000000003e-02  4.1666666666666663e-01  2.9999999999999999e-01
5.0000000000000003e-02  4.4444444444444442e-01  1.4999999999999999e-01
5.0000000000000003e-02  4.1666666666666663e-01  1.4999999999999999e-01
-5.0000000000000003e-02  5.0000000000000000e-01  0.0000000000000000e+00
-5.0000000000000003e-02  5.0000000000000000e-01  2.9999999999999999e-01
-5.0000000000000003e-02  4.7222222222222221e-01  0.0000000000000000e+00
-5.0000000000000003e-02  4.7222222222222221e-01  2.9999999999999999e-01
-5.0000000000000003e-02  5.0000000000000000e-01  1.4999999999999999e-01
-5.0000000000000003e-02  4.7222222222222221e-01  1.4999999999999999e-01
5.0000000000000003e-02  5.0000000000000000e-01  0.0000000000000000e+00
5.0000000000000003e-02  5.0000000000000000e-01  2.9999999999999999e-01
5.0000000000000003e-02  4.7222222222222221e-01  0.0000000000000000e+00
5.0000000000000003e-02  4.7222222222222221e-01  2.9999999999999999e-01
5.0000000000000003e-02  5.0000000000000000e-01  1.4999999999999999e-01
5.0000000000000003e-02  4.7222222222222221e-01  1.4999999999999999e-01
-5.0000000000000003e-02  5.5555555555555558e-01  0.0000000000000000e+00
-5.0000000000000003e-02  5.5555555555555558e-01  2.9999999999999999e-01
-5.0000000000000003e-02  5.2777777777777779e-01  0.0000000000000000e+00
-5.0000000000000003e-02  5.2777777777777779e-01  2.9999999999999999e-01
-5.0000000000000003e-02  5.5555555555555558e-01  1.4999999999999999e-01
-5.0000000000000003e-02  5.2777777777777779e-01  1.4999999999999999e-01
5.0000000000000003e-02  5.5555555555555558e-01  0.0000000000000000e+00
5.0000000000000003e-02  5.5555555555555558e-01  2.9999999999999999e-01
5.0000000000000003e-02  5.2777777777777779e-01  0.0000000000000000e+00
5.0000000000000003e-02  5.2777777777777779e-01  2.9999999999999999e-01
5.0000000000000003e-02  5.5555555555555558e-01  1.4999999999999999e-01
5.0000000000000003e-02  5.2777777777777779e-01  1.4999999999999999e-01
-5.0000000000000003e-02  6.1111111111111105e-01  0.0000000000000000e+00
-5.0000000000000003e-02  6.1111111111111105e-01  2.9999999999999999e-01
-5.0000000000000003e-02  5.8333333333333326e-01  0.0000000000000000e+00
-5.0000000000000003e-02  5.8333333333333326e-01  2.9999999999999999e-01
-5.0000000000000003e-02  6.1111111111111105e-01  1.4999999999999999e-01
-5.0000000000000003e-02  5.8333333333333326e-01  1.4999999999999999e-01
5.0000000000000003e-02  6.1111111111111105e-01  0.0000000000000000e+00
5.0000000000000003e-02  6.1111111111111105e-01  2.9999999999999999e-01
5.0000000000000003e-02  5.8333333333333326e-01  0.0000000000000000e+00
5.0000000000000003e-02  5.8333333333333326e-01  2.9999999999999999e-01
5.0000000000000003e-02  6.1111111111111105e-01  1.4999999999999999e-01
5.0000000000000003e-02  5.8333333333333326e-01  1.4999999999999999e-01
-5.0000000000000003e-02  6.6666666666666663e-01  0.0000000000000000e+00
-5.0000000000000003e-02  6.6666666666666663e-01  2.9999999999999999e-01
-5.0000000000000003e-02  6.3888888888888884e-01  0.0000000000000000e+00
-5.0000000000000003e-02  6.3888888888888884e-01  2.9999999999999999e-01
-5.0000000000000003e-02  6.6666666666666663e-01  1.4999999999999999e-01
-5.0000000000000003e-02  6.3888888888888884e-01  1.4999999999999999e-01
5.0000000000000003e-02  6.6666666666666663e-01  0.0000000000000000e+00
5.0000000000000003e-02  6.6666666666666663e-01  2.9999999999999999e-01
5.0000000000000003e-02  6.3888888888888884e-01  0.0000000000000000e+00
5.0000000000000003e-02  6.3888888888888884e-01  2.9999999999999999e-01
5.0000000000000003e-02  6.6666666666666663e-01  1.4999999999999999e-01
5.0000000000000003e-02  6.3888888888888884e-01  1.4999999999999999e-01
-5.0000000000000003e-02  7.2222222222222221e-01  0.0000000000000000e+00
-5.0000000000000003e-02  7.2222222222222221e-01  2.9999999999999999e-01
-5.0000000000000003e-02  6.9444444444444442e-01  0.0000000000000000e+00
-5.0000000000000003e-02  6.9444444444444442e-01  2.9999999999999999e-01
-5.0000000000000003e-02  7.2222222222222221e-01  1.4999999999999999e-01
-5.0000000000000003e-02  6.9444444444444442e-01  1.4999999999999999e-01
5.0000000000000003e-02  7.2222222222222221e-01  0.0000000000000000e+00
5.0000000000000003e-02  7.2222222222222221e-01  2.9999999999999999e-01
5.0000000000000003e-02  6.9444444444444442e-01  0.0000000000000000e+00
5.0000000000000003e-02  6.9444444444444442e-01  2.9999999999999999e-01
5.0000000000000003e-02  7.2222222222222221e-01  1.4999999999999999e-01
5.0000000000000003e-02  6.9444444444444442e-01  1.4999999999999999e-01
-5.0000000000000003e-02  7.7777777777777768e-01  0.0000000000000000e+00
-5.0000000000000003e-02  7.7777777777777768e-01  2.9999999999999999e-01
-5.0000000000000003e-02  7.5000000000000000e-01  0.0000000000000000e+00
-5.0000000000000003e-02  7.5000000000000000e-01  2.9999999999999999e-01
-5.0000000000000003e-02  7.7777777777777768e-01  1.4999999999999999e-01
-5.0000000000000003e-02  7.5000000000000000e-01  1.4999999999999999e-01
5.0000000000000003e-02  7.7777777777777768e-01  0.0000000000000000e+00
5.0000000000000003e-02  7.7777777777777768e-01  2.9999999999999999e-01
5.0000000000000003e-02  7.5000000000000000e-01  0.0000000000000000e+00
5.0000000000000003e-02  7.5000000000000000e-01  2.9999999999999999e-01
5.0000000000000003e-02  7.7777777777777768e-01  1.4999999999999999e-01
5.0000000000000003e-02  7.5000000000000000e-01  1.4999999999999999e-01
-5.0000000000000003e-02  8.3333333333333326e-01  0.0000000000000000e+00
-5.0000000000000003e-02  8.3333333333333326e-01  2.9999999999999999e-01
-5.0000000000000003e-02  8.0555555555555547e-01  0.0000000000000000e+00
-5.0000000000000003e-02  8.0555555555555547e-01  2.9999999999999999e-01
-5.0000000000000003e-02  8.3333333333333326e-01  1.4999999999999999e-01
-5.0000000000000003e-02  8.0555555555555536e-01  1.4999999999999999e-01
5.0000000000000003e-02  8.3333333333333326e-01  0.0000000000000000e+00
5.0000000000000003e-02  8.3333333333333326e-01  2.9999999999999999e-01
5.0000000000000003e-02  8.0555555555555547e-01  0.0000000000000000e+00
5.0000000000000003e-02  8.0555555555555547e-01  2.9999999999999999e-01
5.0000000000000003e-02  8.3333333333333326e-01  1.4999999999999999e-01
5.0000000000000003e-02  8.0555555555555536e-01  1.4999999999999999e-01
-5.0000000000000003e-02  8.8888888888888884e-01  0.0000000000000000e+00
-5.0000000000000003e-02  8.8888888888888884e-01  2.9999999999999999e-01
-5.0000000000000003e-02  8.6111111111111105e-01  0.0000000000000000e+00
-5.0000000000000003e-02  8.6111111111111105e-01  2.9999999999999999e-01
-5.0000000000000003e-02  8.8888888888888884e-01  1.4999999999999999e-01
-5.0000000000000003e-02  8.6111111111111105e-01  1.4999999999999999e-01
5.0000000000000003e-02  8.8888888888888884e-01  0.0000000000000000e+00
5.0000000000000003e-02  8.8888888888888884e-01  2.9999999999999999e-01
5.0000000000000003e-02  8.6111111111111105e-01  0.0000000000000000e+00
5.0000000000000003e-02  8.6111111111111105e-01  2.9999999999999999e-01
5.0000000000000003e-02  8.8888888888888884e-01  1.4999999999999999e-01
5.0000000000000003e-02  8.6111111111111105e-01  1.4999999999999999e-01
-5.0000000000000003e-02  9.4444444444444442e-01  0.0000000000000000e+00
-5.0000000000000003e-02  9.4444444444444442e-01  2.9999999999999999e-01
-5.0000000000000003e-02  9.1666666666666663e-01  0.0000000000000000e+00
-5.0000000000000003e-02  9.1666666666666663e-01  2.9999999999999999e-01
-5.0000000000000003e-02  9.4444444444444442e-01  1.4999999999999999e-01
-5.0000000000000003e-02  9.1666666666666674e-01  1.4999999999999999e-01
5.0000000000000003e-02  9.4444444444444442e-01  0.0000000000000000e+00
5.0000000000000003e-02  9.4444444444444442e-01  2.9999999999999999e-01
5.0000000000000003e-02  9.1666666666666663e-01  0.0000000000000000e+00
5.0000000000000003e-02  9.1666666666666663e-01  2.9999999999999999e-01
5.0000000000000003e-02  9.4444444444444442e-01  1.4999999999999999e-01
5.0000000000000003e-02  9.1666666666666674e-01  1.4999999999999999e-01
-5.0000000000000003e-02  1.0000000000000000e+00  0.0000000000000000e+00
-1.6666666666666670e-02  1.0000000000000000e+00  0.0000000000000000e+00
-5.0000000000000003e-02  1.0000000000000000e+00  2.9999999999999999e-01
-1.6666666666666670e-02  1.0000000000000000e+00  2.9999999999999999e-01
-5.0000000000000003e-02  9.7222222222222221e-01  0.0000000000000000e+00
-3.3333333333333340e-02  1.0000000000000000e+00  0.0000000000000000e+00
-5.0000000000000003e-02  9.7222222222222221e-01  2.9999999999999999e-01
-3.3333333333333340e-02  1.0000000000000000e+00  2.9999999999999999e-01
-5.0000000000000003e-02  1.0000000000000000e+00  1.4999999999999999e-01
-1.6666666666666670e-02  1.0000000000000000e+00  1.4999999999999999e-01
-5.0000000000000003e-02  9.7222222222222221e-01  1.4999999999999999e-01
-3.3333333333333340e-02  1.0000000000000000e+00  1.4999999999999999e-01
1.6666666666666663e-02  1.0000000000000000e+00  0.0000000000000000e+00
1.6666666666666663e-02  1.0000000000000000e+00  2.9999999999999999e-01
-3.4694469519536142e-18  1.0000000000000000e+00  0.0000000000000000e+00
-3.4694469519536142e-18  1.0000000000000000e+00  2.9999999999999999e-01
1.6666666666666663e-02  1.0000000000000000e+00  1.4999999999999999e-01
-3.4694469519536142e-18  1.0000000000000000e+00  1.4999999999999999e-01
5.0000000000000003e-02  1.0000000000000000e+00  0.0000000000000000e+00
5.0000000000000003e-02  1.0000000000000000e+00  2.9999999999999999e-01
5.0000000000000003e-02  9.7222222222222221e-01  0.0000000000000000e+00
3.3333333333333333e-02  1.0000000000000000e+00  0.0000000000000000e+00
5.0000000000000003e-02  9.7222222222222221e-01  2.9999999999999999e-01
3.3333333333333333e-02  1.0000000000000000e+00  2.9999999999999999e-01
5.0000000000000003e-02  1.0000000000000000e+00  1.4999999999999999e-01
5.0000000000000003e-02  9.7222222222222221e-01  1.4999999999999999e-01
3.3333333333333333e-02  1.0000000000000000e+00  1.4999999999999999e-01

CELLS 0 0


CELL_TYPES 0


POINT_DATA 237

VECTORS VertexNormals float

0.0000000000000000e+00 0.0000000000000000e+00 0.0000000000000000e+00 
0.0000000000000000e+00 0.0000000000000000e+00 0.0000000000000000e+00 
0.0000000000000000e+00 0.0000000000000000e+00 0.0000000000000000e+00 
0.0000000000000000e+00 0.0000000000000000e+00 0.0000000000000000e+00 
0.0000000000000000e+00 0.0000000000000000e+00 0.0000000000000000e+00 
0.0000000000000000e+00 0.0000000000000000e+00 0.0000000000000000e+00 
0.0000000000000000e+00 0.0000000000000000e+00 0.0000000000000000e+00 
0.0000000000000000e+00 0.0000000000000000e+00 0.0000000000000000e+00 
0.0000000000000000e+00 0.0000000000000000e+00 0.0000000000000000e+00 
0.0000000000000000e+00 0.0000000000000000e+00 0.0000000000000000e+00 
0.0000000000000000e+00 0.0000000000000000e+00 0.0000000000000000e+00 
0.0000000000000000e+00 0.0000000000000000e+00 0.0000000000000000e+00 
0.0000000000000000e+00 0.0000000000000000e+00 0.0000000000000000e+00 
0.0000000000000000e+00 0.0000000000000000e+00 0.0000000000000000e+00 
0.0000000000000000e+00 0.0000000000000000e+00 0.0000000000000000e+00 
0.0000000000000000e+00 0.0000000000000000e+00 0.0000000000000000e+00 
0.0000000000000000e+00 0.0000000000000000e+00 0.0000000000000000e+00 
0.0000000000000000e+00 0.0000000000000000e+00 0.0000000000000000e+00 
0.0000000000000000e+00 0.0000000000000000e+00 0.0000000000000000e+00 
0.0000000000000000e+00 0.0000000000000000e+00 0.0000000000000000e+00 
0.0000000000000000e+00 0.0000000000000000e+00 0.0000000000000000e+00 
0.0000000000000000e+00 0.0000000000000000e+00 0.0000000000000000e+00 
0.0000000000000000e+00 0.0000000000000000e+00 0.0000000000000000e+00 
0.0000000000000000e+00 0.0000000000000000e+00 0.0000000000000000e+00 
0.0000000000000000e+00 0.0000000000000000e+00 0.0000000000000000e+00 
0.0000000000000000e+00 0.0000000000000000e+00 0.0000000000000000e+00 
0.0000000000000000e+00 0.0000000000000000e+00 0.0000000000000000e+00 
0.0000000000000000e+00 0.0000000000000000e+00 0.0000000000000000e+00 
0.0000000000000000e+00 0.0000000000000000e+00 0.0000000000000000e+00 
0.0000000000000000e+00 0.0000000000000000e+00 0.0000000000000000e+00 
0.0000000000000000e+00 0.0000000000000000e+00 0.0000000000000000e+00 
0.0000000000000000e+00 0.0000000000000000e+00 0.0000000000000000e+00 
0.0000000000000000e+00 0.0000000000000000e+00 0.0000000000000000e+00 
0.0000000000000000e+00 0.0000000000000000e+00 0.0000000000000000e+00 
0.0000000000000000e+00 0.0000000000000000e+00 0.0000000000000000e+00 
0.0000000000000000e+00 0.0000000000000000e+00 0.0000000000000000e+00 
0.0000000000000000e+00 0.0000000000000000e+00 0.0000000000000000e+00 
0.0000000000000000e+00 0.0000000000000000e+00 0.0000000000000000e+00 
0.0000000000000000e+00 0.0000000000000000e+00 0.0000000000000000e+00 
0.0000000000000000e+00 0.0000000000000000e+00 0.0000000000000000e+00 
0.0000000000000000e+00 0.0000000000000000e+00 0.0000000000000000e+00 
0.0000000000000000e+00 0.0000000000000000e+00 0.0000000000000000e+00 
0.0000000000000000e+00 0.0000000000000000e+00 0.0000000000000000e+00 
0.0000000000000000e+00 0.0000000000000000e+00 0.0000000000000000e+00 
0.0000000000000000e+00 0.0000000000000000e+00 0.0000000000000000e+00 
0.0000000000000000e+00 0.0000000000000000e+00 0.0000000000000000e+00 
0.0000000000000000e+00 0.0000000000000000e+00 0.0000000000000000e+00 
0.0000000000000000e+00 0.0000000000000000e+00 0.0000000000000000e+00 
0.0000000000000000e+00 0.0000000000000000e+00 0.0000000000000000e+00 
0.0000000000000000e+00 0.0000000000000000e+00 0.0000000000000000e+00 
0.0000000000000000e+00 0.0000000000000000e+00 0.0000000000000000e+00 
0.0000000000000000e+00 0.0000000000000000e+00 0.0000000000000000e+00 
0.0000000000000000e+00 0.0000000000000000e+00 0.0000000000000000e+00 
0.0000000000000000e+00 0.0000000000000000e+00 0.0000000000000000e+00 
0.0000000000000000e+00 0.0000000000000000e+00 0.0000000000000000e+00 
0.0000000000000000e+00 0.0000000000000000e+00 0.0000000000000000e+00 
0.0000000000000000e+00 0.0000000000000000e+00 0.0000000000000000e+00 
0.0000000000000000e+00 0.0000000000000000e+00 0.0000000000000000e+00 
0.0000000000000000e+00 0.0000000000000000e+00 0.0000000000000000e+00 
0.0000000000000000e+00 0.0000000000000000e+00 0.0000000000000000e+00 
0.0000000000000000e+00 0.0000000000000000e+00 0.0000000000000000e+00 
0.0000000000000000e+00 0.0000000000000000e+00 0.0000000000000000e+00 
0.0000000000000000e+00 0.0000000000000000e+00 0.0000000000000000e+00 
0.0000000000000000e+00 0.0000000000000000e+00 0.0000000000000000e+00 
0.0000000000000000e+00 0.0000000000000000e+00 0.0000000000000000e+00 
0.0000000000000000e+00 0.0000000000000000e+00 0.0000000000000000e+00 
0.0000000000000000e+00 0.0000000000000000e+00 0.0000000000000000e+00 
0.0000000000000000e+00 0.0000000000000000e+00 0.0000000000000000e+00 
0.0000000000000000e+00 0.0000000000000000e+00 0.0000000000000000e+00 
0.0000000000000000e+00 0.0000000000000000e+00 0.0000000000000000e+00 
0.0000000000000000e+00 0.0000000000000000e+00 0.0000000000000000e+00 
0.0000000000000000e+00 0.0000000000000000e+00 0.0000000000000000e+00 
0.0000000000000000e+00 0.0000000000000000e+00 0.0000000000000000e+00 
0.0000000000000000e+00 0.0000000000000000e+00 0.0000000000000000e+00 
0.0000000000000000e+00 0.0000000000000000e+00 0.0000000000000000e+00 
0.0000000000000000e+00 0.0000000000000000e+00 0.0000000000000000e+00 
0.0000000000000000e+00 0.0000000000000000e+00 0.0000000000000000e+00 
0.0000000000000000e+00 0.0000000000000000e+00 0.0000000000000000e+00 
0.0000000000000000e+00 0.0000000000000000e+00 0.0000000000000000e+00 
0.0000000000000000e+00 0.0000000000000000e+00 0.0000000000000000e+00 
0.0000000000000000e+00 0.0000000000000000e+00 0.0000000000000000e+00 
0.0000000000000000e+00 0.0000000000000000e+00 0.0000000000000000e+00 
0.0000000000000000e+00 0.0000000000000000e+00 0.0000000000000000e+00 
0.0000000000000000e+00 0.0000000000000000e+00 0.0000000000000000e+00 
0.0000000000000000e+00 0.0000000000000000e+00 0.0000000000000000e+00 
0.0000000000000000e+00 0.0000000000000000e+00 0.0000000000000000e+00 
0.0000000000000000e+00 0.0000000000000000e+00 0.0000000000000000e+00 
0.0000000000000000e+00 0.0000000000000000e+00 0.0000000000000000e+00 
0.0000000000000000e+00 0.0000000000000000e+00 0.0000000000000000e+00 
0.0000000000000000e+00 0.0000000000000000e+00 0.0000000000000000e+00 
0.0000000000000000e+00 0.0000000000000000e+00 0.0000000000000000e+00 
0.0000000000000000e+00 0.0000000000000000e+00 0.0000000000000000e+00 
0.0000000000000000e+00 0.0000000000000000e+00 0.0000000000000000e+00 
0.0000000000000000e+00 0.0000000000000000e+00 0.0000000000000000e+00 
0.0000000000000000e+00 0.0000000000000000e+00 0.0000000000000000e+00 
0.0000000000000000e+00 0.0000000000000000e+00 0.0000000000000000e+00 
0.0000000000000000e+00 0.0000000000000000e+00 0.0000000000000000e+00 
0.0000000000000000e+00 0.0000000000000000e+00 0.0000000000000000e+00 
0.0000000000000000e+00 0.0000000000000000e+00 0.0000000000000000e+00 
0.0000000000000000e+00 0.0000000000000000e+00 0.0000000000000000e+00 
0.0000000000000000e+00 0.0000000000000000e+00 0.0000000000000000e+00 
0.0000000000000000e+00 0.0000000000000000e+00 0.0000000000000000e+00 
0.0000000000000000e+00 0.0000000000000000e+00 0.0000000000000000e+00 
0.0000000000000000e+00 0.0000000000000000e+00 0.0000000000000000e+00 
0.0000000000000000e+00 0.0000000000000000e+00 0.0000000000000000e+00 
0.0000000000000000e+00 0.0000000000000000e+00 0.0000000000000000e+00 
0.0000000000000000e+00 0.0000000000000000e+00 0.0000000000000000e+00 
0.0000000000000000e+00 0.0000000000000000e+00 0.0000000000000000e+00 
0.0000000000000000e+00 0.0000000000000000e+00 0.0000000000000000e+00 
0.0000000000000000e+00 0.0000000000000000e+00 0.0000000000000000e+00 
0.0000000000000000e+00 0.0000000000000000e+00 0.0000000000000000e+00 
0.0000000000000000e+00 0.0000000000000000e+00 0.0000000000000000e+00 
0.0000000000000000e+00 0.0000000000000000e+00 0.0000000000000000e+00 
0.0000000000000000e+00 0.0000000000000000e+00 0.0000000000000000e+00 
0.0000000000000000e+00 0.0000000000000000e+00 0.0000000000000000e+00 
0.0000000000000000e+00 0.0000000000000000e+00 0.0000000000000000e+00 
0.0000000000000000e+00 0.0000000000000000e+00 0.0000000000000000e+00 
0.0000000000000000e+00 0.0000000000000000e+00 0.0000000000000000e+00 
0.0000000000000000e+00 0.0000000000000000e+00 0.0000000000000000e+00 
0.0000000000000000e+00 0.0000000000000000e+00 0.0000000000000000e+00 
0.0000000000000000e+00 0.0000000000000000e+00 0.0000000000000000e+00 
0.0000000000000000e+00 0.0000000000000000e+00 0.0000000000000000e+00 
0.0000000000000000e+00 0.0000000000000000e+00 0.0000000000000000e+00 
0.0000000000000000e+00 0.0000000000000000e+00 0.0000000000000000e+00 
0.0000000000000000e+00 0.0000000000000000e+00 0.0000000000000000e+00 
0.0000000000000000e+00 0.0000000000000000e+00 0.0000000000000000e+00 
0.0000000000000000e+00 0.0000000000000000e+00 0.0000000000000000e+00 
0.0000000000000000e+00 0.0000000000000000e+00 0.0000000000000000e+00 
0.0000000000000000e+00 0.0000000000000000e+00 0.0000000000000000e+00 
0.0000000000000000e+00 0.0000000000000000e+00 0.0000000000000000e+00 
0.0000000000000000e+00 0.0000000000000000e+00 0.0000000000000000e+00 
0.0000000000000000e+00 0.0000000000000000e+00 0.0000000000000000e+00 
0.0000000000000000e+00 0.0000000000000000e+00 0.0000000000000000e+00 
0.0000000000000000e+00 0.0000000000000000e+00 0.0000000000000000e+00 
0.0000000000000000e+00 0.0000000000000000e+00 0.0000000000000000e+00 
0.0000000000000000e+00 0.0000000000000000e+00 0.0000000000000000e+00 
0.0000000000000000e+00 0.0000000000000000e+00 0.0000000000000000e+00 
0.0000000000000000e+00 0.0000000000000000e+00 0.0000000000000000e+00 
0.0000000000000000e+00 0.0000000000000000e+00 0.0000000000000000e+00 
0.0000000000000000e+00 0.0000000000000000e+00 0.0000000000000000e+00 
0.0000000000000000e+00 0.0000000000000000e+00 0.0000000000000000e+00 
0.0000000000000000e+00 0.0000000000000000e+00 0.0000000000000000e+00 
0.0000000000000000e+00 0.0000000000000000e+00 0.0000000000000000e+00 
0.0000000000000000e+00 0.0000000000000000e+00 0.0000000000000000e+00 
0.0000000000000000e+00 0.0000000000000000e+00 0.0000000000000000e+00 
0.0000000000000000e+00 0.0000000000000000e+00 0.0000000000000000e+00 
0.0000000000000000e+00 0.0000000000000000e+00 0.0000000000000000e+00 
0.0000000000000000e+00 0.0000000000000000e+00 0.0000000000000000e+00 
0.0000000000000000e+00 0.0000000000000000e+00 0.0000000000000000e+00 
0.0000000000000000e+00 0.0000000000000000e+00 0.0000000000000000e+00 
0.0000000000000000e+00 0.0000000000000000e+00 0.0000000000000000e+00 
0.0000000000000000e+00 0.0000000000000000e+00 0.0000000000000000e+00 
0.0000000000000000e+00 0.0000000000000000e+00 0.0000000000000000e+00 
0.0000000000000000e+00 0.0000000000000000e+00 0.0000000000000000e+00 
0.0000000000000000e+00 0.0000000000000000e+00 0.0000000000000000e+00 
0.0000000000000000e+00 0.0000000000000000e+00 0.0000000000000000e+00 
0.0000000000000000e+00 0.0000000000000000e+00 0.0000000000000000e+00 
0.0000000000000000e+00 0.0000000000000000e+00 0.0000000000000000e+00 
0.0000000000000000e+00 0.0000000000000000e+00 0.0000000000000000e+00 
0.0000000000000000e+00 0.0000000000000000e+00 0.0000000000000000e+00 
0.0000000000000000e+00 0.0000000000000000e+00 0.0000000000000000e+00 
0.0000000000000000e+00 0.0000000000000000e+00 0.0000000000000000e+00 
0.0000000000000000e+00 0.0000000000000000e+00 0.0000000000000000e+00 
0.0000000000000000e+00 0.0000000000000000e+00 0.0000000000000000e+00 
0.0000000000000000e+00 0.0000000000000000e+00 0.0000000000000000e+00 
0.0000000000000000e+00 0.0000000000000000e+00 0.0000000000000000e+00 
0.0000000000000000e+00 0.0000000000000000e+00 0.0000000000000000e+00 
0.0000000000000000e+00 0.0000000000000000e+00 0.0000000000000000e+00 
0.0000000000000000e+00 0.0000000000000000e+00 0.0000000000000000e+00 
0.0000000000000000e+00 0.0000000000000000e+00 0.0000000000000000e+00 
0.0000000000000000e+00 0.0000000000000000e+00 0.0000000000000000e+00 
0.0000000000000000e+00 0.0000000000000000e+00 0.0000000000000000e+00 
0.0000000000000000e+00 0.0000000000000000e+00 0.0000000000000000e+00 
0.0000000000000000e+00 0.0000000000000000e+00 0.0000000000000000e+00 
0.0000000000000000e+00 0.0000000000000000e+00 0.0000000000000000e+00 
0.0000000000000000e+00 0.0000000000000000e+00 0.0000000000000000e+00 
0.0000000000000000e+00 0.0000000000000000e+00 0.0000000000000000e+00 
0.0000000000000000e+00 0.0000000000000000e+00 0.0000000000000000e+00 
0.0000000000000000e+00 0.0000000000000000e+00 0.0000000000000000e+00 
0.0000000000000000e+00 0.0000000000000000e+00 0.0000000000000000e+00 
0.0000000000000000e+00 0.0000000000000000e+00 0.0000000000000000e+00 
0.0000000000000000e+00 0.0000000000000000e+00 0.0000000000000000e+00 
0.0000000000000000e+00 0.0000000000000000e+00 0.0000000000000000e+00 
0.0000000000000000e+00 0.0000000000000000e+00 0.0000000000000000e+00 
0.0000000000000000e+00 0.0000000000000000e+00 0.0000000000000000e+00 
0.0000000000000000e+00 0.0000000000000000e+00 0.0000000000000000e+00 
0.0000000000000000e+00 0.0000000000000000e+00 0.0000000000000000e+00 
0.0000000000000000e+00 0.0000000000000000e+00 0.0000000000000000e+00 
0.0000000000000000e+00 0.0000000000000000e+00 0.0000000000000000e+00 
0.0000000000000000e+00 0.0000000000000000e+00 0.0000000000000000e+00 
0.0000000000000000e+00 0.0000000000000000e+00 0.0000000000000000e+00 
0.0000000000000000e+00 0.0000000000000000e+00 0.0000000000000000e+00 
0.0000000000000000e+00 0.0000000000000000e+00 0.0000000000000000e+00 
0.0000000000000000e+00 0.0000000000000000e+00 0.0000000000000000e+00 
0.0000000000000000e+00 0.0000000000000000e+00 0.0000000000000000e+00 
0.0000000000000000e+00 0.0000000000000000e+00 0.0000000000000000e+00 
0.0000000000000000e+00 0.0000000000000000e+00 0.0000000000000000e+00 
0.0000000000000000e+00 0.0000000000000000e+00 0.0000000000000000e+00 
0.0000000000000000e+00 0.0000000000000000e+00 0.0000000000000000e+00 
0.0000000000000000e+00 0.0000000000000000e+00 0.0000000000000000e+00 
0.0000000000000000e+00 0.0000000000000000e+00 0.0000000000000000e+00 
0.0000000000000000e+00 0.0000000000000000e+00 0.0000000000000000e+00 
0.0000000000000000e+00 0.0000000000000000e+00 0.0000000000000000e+00 
0.0000000000000000e+00 0.0000000000000000e+00 0.0000000000000000e+00 
0.0000000000000000e+00 0.0000000000000000e+00 0.0000000000000000e+00 
0.0000000000000000e+00 0.0000000000000000e+00 0.0000000000000000e+00 
0.0000000000000000e+00 0.0000000000000000e+00 0.0000000000000000e+00 
0.0000000000000000e+00 0.0000000000000000e+00 0.0000000000000000e+00 
0.0000000000000000e+00 0.0000000000000000e+00 0.0000000000000000e+00 
0.0000000000000000e+00 0.0000000000000000e+00 0.0000000000000000e+00 
0.0000000000000000e+00 0.0000000000000000e+00 0.0000000000000000e+00 
0.0000000000000000e+00 0.0000000000000000e+00 0.0000000000000000e+00 
0.0000000000000000e+00 0.0000000000000000e+00 0.0000000000000000e+00 
0.0000000000000000e+00 0.0000000000000000e+00 0.0000000000000000e+00 
0.0000000000000000e+00 0.0000000000000000e+00 0.0000000000000000e+00 
0.0000000000000000e+00 0.0000000000000000e+00 0.0000000000000000e+00 
0.0000000000000000e+00 0.0000000000000000e+00 0.0000000000000000e+00 
0.0000000000000000e+00 0.0000000000000000e+00 0.0000000000000000e+00 
0.0000000000000000e+00 0.0000000000000000e+00 0.0000000000000000e+00 
0.0000000000000000e+00 0.0000000000000000e+00 0.0000000000000000e+00 
0.0000000000000000e+00 0.0000000000000000e+00 0.0000000000000000e+00 
0.0000000000000000e+00 0.0000000000000000e+00 0.0000000000000000e+00 
0.0000000000000000e+00 0.0000000000000000e+00 0.0000000000000000e+00 
0.0000000000000000e+00 0.0000000000000000e+00 0.0000000000000000e+00 
0.0000000000000000e+00 0.0000000000000000e+00 0.0000000000000000e+00 
0.0000000000000000e+00 0.0000000000000000e+00 0.0000000000000000e+00 
0.0000000000000000e+00 0.0000000000000000e+00 0.0000000000000000e+00 
0.0000000000000000e+00 0.0000000000000000e+00 0.0000000000000000e+00 
0.0000000000000000e+00 0.0000000000000000e+00 0.0000000000000000e+00 
0.0000000000000000e+00 0.0000000000000000e+00 0.0000000000000000e+00 
0.0000000000000000e+00 0.0000000000000000e+00 0.0000000000000000e+00 
0.0000000000000000e+00 0.0000000000000000e+00 0.0000000000000000e+00 
0.0000000000000000e+00 0.0000000000000000e+00 0.0000000000000000e+00 
0.0000000000000000e+00 0.0000000000000000e+00 0.0000000000000000e+00 
0.0000000000000000e+00 0.0000000000000000e+00 0.0000000000000000e+00 
0.0000000000000000e+00 0.0000000000000000e+00 0.0000000000000000e+00 
0.0000000000000000e+00 0.0000000000000000e+00 0.0000000000000000e+00 

VECTORS Displacement float
0.0000000000000000e+00 0.0000000000000000e+00 0.0000000000000000e+00 
7.2482372629766013e-04 6.1075556528816235e-04 0.0000000000000000e+00 
0.0000000000000000e+00 0.0000000000000000e+00 0.0000000000000000e+00 
7.2482191990054165e-04 6.1075550075185767e-04 0.0000000000000000e+00 
3.1641977946202831e-04 3.6844522842983463e-04 0.0000000000000000e+00 
3.1641905557516792e-04 3.6844488733746913e-04 0.0000000000000000e+00 
0.0000000000000000e+00 0.0000000000000000e+00 0.0000000000000000e+00 
7.2482213431673793e-04 6.1075538811948527e-04 -3.0251093120094484e-10 
3.1641849418536207e-04 3.6844491851918042e-04 -2.1870878512797405e-10 
0.0000000000000000e+00 0.0000000000000000e+00 0.0000000000000000e+00 
7.2645832060918756e-04 -5.9495063802366733e-04 0.0000000000000000e+00 
0.0000000000000000e+00 0.0000000000000000e+00 0.0000000000000000e+00 
7.2645751663295843e-04 -5.9495103339732877e-04 0.0000000000000000e+00 
3.5588924065897215e-04 -3.6364928519258256e-04 0.0000000000000000e+00 
3.5588819579770780e-04 -3.6364893722088456e-04 0.0000000000000000e+00 
0.0000000000000000e+00 0.0000000000000000e+00 0.0000000000000000e+00 
7.2645817121883330e-04 -5.9495126926866577e-04 7.6609661531680962e-11 
3.5588829033405460e-04 -3.6364993129233189e-04 1.2010262468784826e-10 
1.8321490748631820e-03 1.0544703029505523e-03 0.0000000000000000e+00 
1.8321472655160815e-03 1.0544703816005019e-03 0.0000000000000000e+00 
1.1955190430234209e-03 8.3488665558945074e-04 0.0000000000000000e+00 
1.1955175738004649e-03 8.3488608465023231e-04 0.0000000000000000e+00 
1.8321484471452740e-03 1.0544707425499268e-03 -3.7156111010797353e-10 
1.1955179647654898e-03 8.3488706564406286e-04 -3.7958905502349302e-10 
1.8275902606426761e-03 -1.0466910743397962e-03 0.0000000000000000e+00 
1.8275894462954337e-03 -1.0466904194594267e-03 0.0000000000000000e+00 
1.1814683568022555e-03 -8.2943231118065683e-04 0.0000000000000000e+00 
1.1814687482177421e-03 -8.2943216631545594e-04 0.0000000000000000e+00 
1.8275892217310475e-03 -1.0466911859496771e-03 6.8502469147056809e-11 
1.1814682905889290e-03 -8.2943230220327646e-04 1.9879760078727852e-10 
3.4376431676961814e-03 1.0756264555654388e-03 0.0000000000000000e+00 
3.4376424247191434e-03 1.0756271378301460e-03 0.0000000000000000e+00 
2.6374812087161231e-03 1.1461131588436249e-03 0.0000000000000000e+00 
2.6374799706901709e-03 1.1461134449924320e-03 0.0000000000000000e+00 
3.4376422368507728e-03 1.0756272450605552e-03 -3.8626187637845570e-10 
2.6374809866079917e-03 1.1461135621292533e-03 -4.5382113623680178e-10 
3.4436441367264310e-03 -1.0492227048735665e-03 0.0000000000000000e+00 
3.4436423258753035e-03 -1.0492245480538225e-03 0.0000000000000000e+00 
2.6400233818070660e-03 -1.1275651167717009e-03 0.0000000000000000e+00 
2.6400207682668250e-03 -1.1275651769712023e-03 0.0000000000000000e+00 
3.4436434557440563e-03 -1.0492232150201104e-03 2.9433895756608490e-10 
2.6400224707199393e-03 -1.1275650060184265e-03 4.9099661632774552e-10 
4.4913106461857404e-03 5.8986545916782016e-04 0.0000000000000000e+00 
4.4913106397506120e-03 5.8986455002132553e-04 0.0000000000000000e+00 
4.0808352986198160e-03 8.5725091441221917e-04 0.0000000000000000e+00 
4.0808358271652188e-03 8.5725121490362935e-04 0.0000000000000000e+00 
4.4913101902670210e-03 5.8986494247455614e-04 -1.6520031954422941e-10 
4.0808360941152399e-03 8.5725129800522429e-04 -2.7353048431408961e-10 
4.4991967494575676e-03 -5.5565267572680428e-04 0.0000000000000000e+00 
4.4991980172788019e-03 -5.5565241470646601e-04 0.0000000000000000e+00 
4.0882329088992326e-03 -8.2621450672915985e-04 0.0000000000000000e+00 
4.0882341266388275e-03 -8.2621553550750069e-04 0.0000000000000000e+00 
4.4991982694425293e-03 -5.5565184221365927e-04 1.5476014951069528e-11 
4.0882341387674477e-03 -8.2621447511290337e-04 3.7800115630254488e-10 
4.7462545005037757e-03 1.5934845787741854e-04 0.0000000000000000e+00 
4.7462535432909250e-03 1.5934735578290656e-04 0.0000000000000000e+00 
4.6958448457855581e-03 3.4795108724083249e-04 0.0000000000000000e+00 
4.6958441670322884e-03 3.4794984205410246e-04 0.0000000000000000e+00 
4.7462528926331196e-03 1.5934822099554670e-04 4.0281194706714985e-12 
4.6958446863193167e-03 3.4795043879853567e-04 -1.3851484631993621e-10 
4.7528188851791598e-03 -1.1806674255529171e-04 0.0000000000000000e+00 
4.7528185140187076e-03 -1.1806597504150140e-04 0.0000000000000000e+00 
4.7032374661367844e-03 -3.1067309767208681e-04 0.0000000000000000e+00 
4.7032378846661171e-03 -3.1067187424473405e-04 0.0000000000000000e+00 
4.7528179611517930e-03 -1.1806738921532392e-04 -1.2577781779869430e-10 
4.7032373317964834e-03 -3.1067238423357297e-04 1.6067241818436011e-10 
4.6383823930988971e-03 -1.7724468765804136e-05 0.0000000000000000e+00 
4.6383804773860249e-03 -1.7726313059179162e-05 0.0000000000000000e+00 
4.7104876660142405e-03 4.4562352702118587e-05 0.0000000000000000e+00 
4.7104870071019694e-03 4.4560685921509309e-05 0.0000000000000000e+00 
4.6383812107688317e-03 -1.7725378367384018e-05 -2.0074230293724053e-10 
4.7104882425892782e-03 4.4561839498750073e-05 -5.2297958739792742e-11 
4.6425222706958594e-03 7.2503768639942541e-05 0.0000000000000000e+00 
4.6425209976662229e-03 7.2505229042889552e-05 0.0000000000000000e+00 
4.7158567311900964e-03 2.3811307204929372e-06 0.0000000000000000e+00 
4.7158567782153871e-03 2.3824001423508386e-06 0.0000000000000000e+00 
4.6425218589044182e-03 7.2503504161444587e-05 2.3723229585123917e-10 
4.7158572805420509e-03 2.3805656077355160e-06 2.0901984052546690e-10 
4.4893528846771469e-03 -3.6688350239877822e-05 0.0000000000000000e+00 
4.4893488552059536e-03 -3.6689467408540265e-05 0.0000000000000000e+00 
4.5590712212669393e-03 -3.8374127624118483e-05 0.0000000000000000e+00 
4.5590682965912458e-03 -3.8375507390120747e-05 0.0000000000000000e+00 
4.4893496438090583e-03 -3.6687993383286508e-05 -5.2871583791572281e-10 
4.5590695040830433e-03 -3.8374501202271562e-05 -3.5335550033614337e-10 
4.4907112909610206e-03 1.1514165321319039e-04 0.0000000000000000e+00 
4.4907076409037043e-03 1.1514291488766827e-04 0.0000000000000000e+00 
4.5618400394609746e-03 1.0354583652323873e-04 0.0000000000000000e+00 
4.5618376026803232e-03 1.0354714477858489e-04 0.0000000000000000e+00 
4.4907085824588593e-03 1.1514133416535854e-04 5.2305805528991602e-10 
4.5618384954244067e-03 1.0354574962725410e-04 6.0723573240739623e-10 
4.3845585326611133e-03 -5.3681785383129266e-06 0.0000000000000000e+00 
4.3845544522350946e-03 -5.3685494217533900e-06 0.0000000000000000e+00 
4.4311256529880657e-03 -2.3472814605681099e-05 0.0000000000000000e+00 
4.4311217666421496e-03 -2.3473440567674136e-05 0.0000000000000000e+00 
4.3845566891329568e-03 -5.3674990638380438e-06 -6.6331489739178989e-10 
4.4311237235952093e-03 -2.3471947545413425e-05 -6.1549468782982809e-10 
4.3824844219757545e-03 1.2054527670866108e-04 0.0000000000000000e+00 
4.3824804260816277e-03 1.2054674092653782e-04 0.0000000000000000e+00 
4.4308340216450120e-03 1.1845367045392892e-04 0.0000000000000000e+00 
4.4308303362907229e-03 1.1845498861562034e-04 0.0000000000000000e+00 
4.3824826595365808e-03 1.2054563895865406e-04 5.8622413074045523e-10 
4.4308319806887365e-03 1.1845375589267525e-04 7.5203197491168032e-10 
4.3111257924102024e-03 3.3786941861834644e-05 0.0000000000000000e+00 
4.3111202910491404e-03 3.3786199672065765e-05 0.0000000000000000e+00 
4.3454849502770525e-03 1.3732074391167341e-05 0.0000000000000000e+00 
4.3454813471480560e-03 1.3731169712347878e-05 0.0000000000000000e+00 
4.3111225091191823e-03 3.3786245596395940e-05 -8.6314006816977488e-10 
4.3454842731613080e-03 1.3731731554237451e-05 -7.1710241866564968e-10 
4.3043712806274436e-03 1.3495909304371716e-04 0.0000000000000000e+00 
4.3043657585601558e-03 1.3496126415303138e-04 0.0000000000000000e+00 
4.3412047391541593e-03 1.2583083640017189e-04 0.0000000000000000e+00 
4.3412010920536532e-03 1.2583298301493522e-04 0.0000000000000000e+00 
4.3043682506510297e-03 1.3496051693330426e-04 8.9365953216236982e-10 
4.3412035635479757e-03 1.2583230828333550e-04 8.7796167113948289e-10 
4.2481597782712327e-03 7.8420204679851340e-05 0.0000000000000000e+00 
4.2481529056291201e-03 7.8422181484906505e-05 0.0000000000000000e+00 
4.2791151253929122e-03 5.4882127603719543e-05 0.0000000000000000e+00 
4.2791083458309292e-03 5.4882611106226902e-05 0.0000000000000000e+00 
4.2481556297567676e-03 7.8421642733988807e-05 -8.9894969971705521e-10 
4.2791115472097137e-03 5.4882365459491663e-05 -9.1294003625633391e-10 
4.2349469916293401e-03 1.6584532374714888e-04 0.0000000000000000e+00 
4.2349402314154827e-03 1.6584473107080863e-04 0.0000000000000000e+00 
4.2692911801617663e-03 1.4852447606938959e-04 0.0000000000000000e+00 
4.2692845277616260e-03 1.4852544038999443e-04 0.0000000000000000e+00 
4.2349426748300011e-03 1.6584390454321281e-04 1.0235710161378879e-09 
4.2692869532790917e-03 1.4852473566085854e-04 1.2217491488181409e-09 
4.1900584747981496e-03 1.3661537582137739e-04 0.0000000000000000e+00 
4.1900550667026892e-03 1.3661786741664089e-04 0.0000000000000000e+00 
4.2182960735596296e-03 1.0549212013370124e-04 0.0000000000000000e+00 
4.2182909721492547e-03 1.0549482240094271e-04 0.0000000000000000e+00 
4.1900572142824265e-03 1.3661710686115232e-04 -5.9226430648766761e-10 
4.2182941311518056e-03 1.0549407757351183e-04 -7.4399168389754804e-10 
4.1687220584570887e-03 2.1062715495857490e-04 0.0000000000000000e+00 
4.1687190405323288e-03 2.1062577519925164e-04 0.0000000000000000e+00 
4.2011336871030803e-03 1.8652101204846892e-04 0.0000000000000000e+00 
4.2011289084697432e-03 1.8651965934527945e-04 0.0000000000000000e+00 
4.1687203712356298e-03 2.1062560585429738e-04 5.5279917168960028e-10 
4.2011311099872141e-03 1.8651925774961105e-04 9.9541172519572180e-10 
4.1417154795306233e-03 2.0956531265808466e-04 0.0000000000000000e+00 
4.1417136268058277e-03 2.0956610875131566e-04 0.0000000000000000e+00 
4.1643029568578915e-03 1.7178594468860581e-04 0.0000000000000000e+00 
4.1643009178001780e-03 1.7178756978738490e-04 0.0000000000000000e+00 
4.1417143066336277e-03 2.0956591195863344e-04 -4.1348651194928198e-10 
4.1643026357551707e-03 1.7178700148159470e-04 -4.6573756999117876e-10 
4.1116448075379560e-03 2.7166321261888181e-04 0.0000000000000000e+00 
4.1116433513888242e-03 2.7166323758936106e-04 0.0000000000000000e+00 
4.1385728494694601e-03 2.3853876705137985e-04 0.0000000000000000e+00 
4.1385717279584936e-03 2.3853835411617621e-04 0.0000000000000000e+00 
4.1116439675384486e-03 2.7166304803062337e-04 1.8373225174052446e-10 
4.1385721976568571e-03 2.3853816727831473e-04 5.0060112507147301e-10 
4.0991396927721998e-03 2.8213022812068463e-04 0.0000000000000000e+00 
4.0991374871861396e-03 2.8213008649263826e-04 0.0000000000000000e+00 
4.1208842789058906e-03 2.4727255418221134e-04 0.0000000000000000e+00 
4.1208825665498706e-03 2.4727273569706342e-04 0.0000000000000000e+00 
4.0991383271234902e-03 2.8213037437134047e-04 -3.0049855857059958e-10 
4.1208836553481261e-03 2.4727283182058159e-04 -3.2828394888653931e-10 
4.0630391798412123e-03 3.6083177857120299e-04 0.0000000000000000e+00 
4.0630380763437930e-03 3.6083183392779231e-04 0.0000000000000000e+00 
4.0873007732637329e-03 3.1203236942873436e-04 0.0000000000000000e+00 
4.0873002003838557e-03 3.1203278187303275e-04 0.0000000000000000e+00 
4.0630382432411179e-03 3.6083159411019170e-04 1.6929319883599618e-10 
4.0873001060890077e-03 3.1203257586306406e-04 3.1232067286102495e-10 
4.0236488313610975e-03 3.2860122966349702e-04 0.0000000000000000e+00 
4.0236471847905448e-03 3.2860136107557654e-04 0.0000000000000000e+00 
4.0696069817530425e-03 3.0932723261965447e-04 0.0000000000000000e+00 
4.0696052163454056e-03 3.0932726879767105e-04 0.0000000000000000e+00 
4.0236473146411638e-03 3.2860146304398253e-04 -9.0972934718441282e-11 
4.0696061075619011e-03 3.0932723591500333e-04 -1.8148654147293648e-10 
3.9922983457919212e-03 4.8462979479378567e-04 0.0000000000000000e+00 
3.9922974443674037e-03 4.8462928384932944e-04 0.0000000000000000e+00 
4.0341851813997017e-03 4.1975341734212281e-04 0.0000000000000000e+00 
4.0341847110018630e-03 4.1975332771653341e-04 0.0000000000000000e+00 
3.9922980020514059e-03 4.8462886568555912e-04 1.0661880067526023e-10 
4.0341847843164387e-03 4.1975285327864432e-04 2.8883198719791797e-10 
3.8537892150091939e-03 3.5380466241264106e-04 0.0000000000000000e+00 
3.8537896653765367e-03 3.5380574942032707e-04 0.0000000000000000e+00 
3.9518397829539165e-03 3.4101919627705930e-04 0.0000000000000000e+00 
3.9518390442269003e-03 3.4101967394258075e-04 0.0000000000000000e+00 
3.8537894945380943e-03 3.5380558721338925e-04 1.5334806630080976e-10 
3.9518393495726221e-03 3.4101977602181194e-04 3.8660448193333751e-11 
3.8529120829023551e-03 6.0136200191160697e-04 0.0000000000000000e+00 
3.8529126603583552e-03 6.0136045354400433e-04 0.0000000000000000e+00 
3.9325070559084064e-03 5.4903210699780620e-04 0.0000000000000000e+00 
3.9325074154734447e-03 5.4903099467757614e-04 0.0000000000000000e+00 
3.8529124197055446e-03 6.0136043317172961e-04 -2.7511019948275802e-10 
3.9325073136423933e-03 5.4903081279508443e-04 7.9430165876725050e-11 
3.6390133913719491e-03 3.8941090058835332e-04 0.0000000000000000e+00 
3.6390165844621407e-03 3.8941232574622926e-04 0.0000000000000000e+00 
3.7437090108660169e-03 3.7360475547392147e-04 0.0000000000000000e+00 
3.7437106833755609e-03 3.7360595600536732e-04 0.0000000000000000e+00 
3.6390147509215284e-03 3.8941211455683614e-04 5.7044142190639537e-10 
3.7437098265117445e-03 3.7360577817749965e-04 3.8625167504185715e-10 
3.6856408590626739e-03 6.4120475718937786e-04 0.0000000000000000e+00 
3.6856445133873969e-03 6.4120202885314839e-04 0.0000000000000000e+00 
3.7665361712886673e-03 6.3026781471971628e-04 0.0000000000000000e+00 
3.7665385748301334e-03 6.3026581401007091e-04 0.0000000000000000e+00 
3.6856423285585873e-03 6.4120341328869148e-04 -6.3415070901781545e-10 
3.7665377222493388e-03 6.3026663861083629e-04 -3.0388896409984470e-10 
3.4189432756590969e-03 4.0288019191490676e-04 0.0000000000000000e+00 
3.4189497430581911e-03 4.0288263755723918e-04 0.0000000000000000e+00 
3.5355052406255134e-03 3.9103225384104560e-04 0.0000000000000000e+00 
3.5355095394469203e-03 3.9103413815420960e-04 0.0000000000000000e+00 
3.4189465363723415e-03 4.0288117122317264e-04 9.8898366043354438e-10 
3.5355075000745371e-03 3.9103366142029570e-04 8.4449598413970521e-10 
3.4924113843992914e-03 6.6681203841216822e-04 0.0000000000000000e+00 
3.4924169350451246e-03 6.6681022679814178e-04 0.0000000000000000e+00 
3.6005869556215916e-03 6.5039990069567925e-04 0.0000000000000000e+00 
3.6005919045170617e-03 6.5039730452104709e-04 0.0000000000000000e+00 
3.4924142192025122e-03 6.6681068974629902e-04 -1.0760375847911359e-09 
3.6005896764242096e-03 6.5039864026556187e-04 -7.7380476304315225e-10 
3.2681578839631287e-03 5.3914157917820369e-04 0.0000000000000000e+00 
3.2701737602375482e-03 5.7419185171807578e-04 0.0000000000000000e+00 
3.2681678086688743e-03 5.3914474843043305e-04 0.0000000000000000e+00 
3.2701833047126165e-03 5.7419329570706818e-04 0.0000000000000000e+00 
3.3132708302091446e-03 4.6880394284496644e-04 0.0000000000000000e+00 
3.2610792717105513e-03 5.4128848220811362e-04 0.0000000000000000e+00 
3.3132797609424060e-03 4.6880608444501505e-04 0.0000000000000000e+00 
3.2610893884572395e-03 5.4129080459065489e-04 0.0000000000000000e+00 
3.2681623523579772e-03 5.3914280775867011e-04 1.1989427745320783e-09 
3.2701781950076098e-03 5.7419211946042631e-04 -6.1239614151340561e-11 
3.3132744054045864e-03 4.6880491794887264e-04 1.1655273845242837e-09 
3.2610836173823008e-03 5.4128921502914729e-04 3.3548371270804183e-10 
3.2888508126162810e-03 6.2063208887700046e-04 0.0000000000000000e+00 
3.2888588381431924e-03 6.2063153439487456e-04 0.0000000000000000e+00 
3.2851653592943526e-03 6.0284180404431530e-04 0.0000000000000000e+00 
3.2851741866921028e-03 6.0284266955514931e-04 0.0000000000000000e+00 
3.2888552648608249e-03 6.2063117394855561e-04 -6.1792378525003321e-10 
3.2851697402206184e-03 6.0284233357748066e-04 -3.4476738731257332e-10 
3.2643298231344511e-03 7.2272758431694601e-04 0.0000000000000000e+00 
3.2643365297108169e-03 7.2272495623198574e-04 0.0000000000000000e+00 
3.3718446373359606e-03 6.9265845808103455e-04 0.0000000000000000e+00 
3.2767549493176399e-03 6.5532736774743475e-04 0.0000000000000000e+00 
3.3718502591600511e-03 6.9265627893179036e-04 0.0000000000000000e+00 
3.2767622794235710e-03 6.5532628552411631e-04 0.0000000000000000e+00 
3.2643333476542165e-03 7.2272608614897167e-04 -1.1420357616946675e-09 
3.3718480261815515e-03 6.9265684972777365e-04 -1.0754349033946024e-09 
3.2767591964840779e-03 6.5532652901703571e-04 -7.5821236958676220e-10 

VECTORS Stress float
1.2228995898291078e+02 -4.9542306242861969e+00 1.5828345211450051e-13 
1.2264156795834333e+02 -1.3658732051785591e+00 2.1432821885006779e-13 
1.2228995898291078e+02 -4.9542306242861969e+00 1.5828345211450051e-13 
1.2264156795834333e+02 -1.3658732051785591e+00 2.1432821885006779e-13 
1.2265674647840206e+02 -1.9763798910455534e+00 1.7709499198316812e-13 
1.2265674647840206e+02 -1.9763798910455534e+00 1.7709499198316812e-13 
1.2228995898291078e+02 -4.9542306242861969e+00 1.5828345211450051e-13 
1.2264156795834333e+02 -1.3658732051785591e+00 2.1432821885006779e-13 
1.2265674647840206e+02 -1.9763798910455534e+00 1.7709499198316812e-13 
9.5022253156914871e+01 -5.4139019937098283e+00 -9.9921097903484152e-15 
9.1341760267844620e+01 -7.7496974117912032e-01 -4.3057776491490603e-14 
9.5022253156914871e+01 -5.4139019937098283e+00 -9.9921097903484152e-15 
9.1341760267844620e+01 -7.7496974117912032e-01 -4.3057776491490603e-14 
9.2014730201309249e+01 -1.6510374179490555e+00 -2.1713724433243193e-14 
9.2014730201309249e+01 -1.6510374179490555e+00 -2.1713724433243193e-14 
9.5022253156914871e+01 -5.4139019937098283e+00 -9.9921097903484152e-15 
9.1341760267844620e+01 -7.7496974117912032e-01 -4.3057776491490603e-14 
9.2014730201309249e+01 -1.6510374179490555e+00 -2.1713724433243193e-14 
1.2254851182774382e+02 -3.0831750890920375e+00 2.2793253014434171e-13 
1.2254851182774382e+02 -3.0831750890920375e+00 2.2793253014434171e-13 
1.2261451541933502e+02 -2.2020670412107393e+00 2.4801782168924387e-13 
1.2261451541933502e+02 -2.2020670412107393e+00 2.4801782168924387e-13 
1.2254851182774382e+02 -3.0831750890920375e+00 2.2793253014434171e-13 
1.2261451541933502e+02 -2.2020670412107393e+00 2.4801782168924387e-13 
9.2592133211256623e+01 -2.4275361565896674e+00 -9.2363845541426244e-14 
9.2592133211256623e+01 -2.4275361565896674e+00 -9.2363845541426244e-14 
9.1884894504182739e+01 -1.5733504541067305e+00 -7.1441361210274292e-14 
9.1884894504182739e+01 -1.5733504541067305e+00 -7.1441361210274292e-14 
9.2592133211256623e+01 -2.4275361565896674e+00 -9.2363845541426244e-14 
9.1884894504182739e+01 -1.5733504541067305e+00 -7.1441361210274292e-14 
1.2209405082631838e+02 -3.1030493036878397e+00 4.5666638919819801e-14 
1.2209405082631838e+02 -3.1030493036878397e+00 4.5666638919819801e-14 
1.2228997769897342e+02 -3.3086172416124100e+00 1.4276812130596076e-13 
1.2228997769897342e+02 -3.3086172416124100e+00 1.4276812130596076e-13 
1.2209405082631838e+02 -3.1030493036878397e+00 4.5666638919819801e-14 
1.2228997769897342e+02 -3.3086172416124100e+00 1.4276812130596076e-13 
9.3696294543650765e+01 -2.3858015873229306e+00 -6.3957848123936229e-14 
9.3696294543650765e+01 -2.3858015873229306e+00 -6.3957848123936229e-14 
9.3165383124881373e+01 -2.6127813277853420e+00 -9.3381925909031560e-14 
9.3165383124881373e+01 -2.6127813277853420e+00 -9.3381925909031560e-14 
9.3696294543650765e+01 -2.3858015873229306e+00 -6.3957848123936229e-14 
9.3165383124881373e+01 -2.6127813277853420e+00 -9.3381925909031560e-14 
1.2139853157094876e+02 -1.3240236860456207e+00 -1.2448493567389612e-13 
1.2139853157094876e+02 -1.3240236860456207e+00 -1.2448493567389612e-13 
1.2170375483766475e+02 -2.2997872954219929e+00 -4.7729545768839075e-14 
1.2170375483766475e+02 -2.2997872954219929e+00 -4.7729545768839075e-14 
1.2139853157094876e+02 -1.3240236860456207e+00 -1.2448493567389612e-13 
1.2170375483766475e+02 -2.2997872954219929e+00 -4.7729545768839075e-14 
9.5561784358381374e+01 -1.0567197710661276e+00 1.5553162317950712e-13 
9.5561784358381374e+01 -1.0567197710661276e+00 1.5553162317950712e-13 
9.4602648392156880e+01 -1.7999977319541358e+00 3.7753980271276094e-14 
9.4602648392156880e+01 -1.7999977319541358e+00 3.7753980271276094e-14 
9.5561784358381374e+01 -1.0567197710661276e+00 1.5553162317950712e-13 
9.4602648392156880e+01 -1.7999977319541358e+00 3.7753980271276094e-14 
1.2050881910489534e+02 -2.3518740536019322e-03 -1.4031740059682501e-13 
1.2050881910489534e+02 -2.3518740536019322e-03 -1.4031740059682501e-13 
1.2097970074045588e+02 -5.2988167835064814e-01 -1.5098205679023901e-13 
1.2097970074045588e+02 -5.2988167835064814e-01 -1.5098205679023901e-13 
1.2050881910489534e+02 -2.3518740536019322e-03 -1.4031740059682501e-13 
1.2097970074045588e+02 -5.2988167835064814e-01 -1.5098205679023901e-13 
9.8053420632769303e+01 -3.6115626126957068e-02 2.1806811711182698e-13 
9.8053420632769303e+01 -3.6115626126957068e-02 2.1806811711182698e-13 
9.6737624073605730e+01 -4.4765703824941738e-01 2.1611658453809942e-13 
9.6737624073605730e+01 -4.4765703824941738e-01 2.1611658453809942e-13 
9.8053420632769303e+01 -3.6115626126957068e-02 2.1806811711182698e-13 
9.6737624073605730e+01 -4.4765703824941738e-01 2.1611658453809942e-13 
1.1937507864218423e+02 4.2053692793979280e-01 -8.2122082927400151e-14 
1.1937507864218423e+02 4.2053692793979280e-01 -8.2122082927400151e-14 
1.2004346266110315e+02 3.0709367496911000e-01 -1.1811738499639612e-13 
1.2004346266110315e+02 3.0709367496911000e-01 -1.1811738499639612e-13 
1.1937507864218423e+02 4.2053692793979280e-01 -8.2122082927400151e-14 
1.2004346266110315e+02 3.0709367496911000e-01 -1.1811738499639612e-13 
1.0111597499261643e+02 3.0521998311542120e-01 9.5692122300246851e-14 
1.0111597499261643e+02 3.0521998311542120e-01 9.5692122300246851e-14 
9.9443614888593402e+01 2.2073291814831464e-01 1.8050779598896683e-13 
9.9443614888593402e+01 2.2073291814831464e-01 1.8050779598896683e-13 
1.0111597499261643e+02 3.0521998311542120e-01 9.5692122300246851e-14 
9.9443614888593402e+01 2.2073291814831464e-01 1.8050779598896683e-13 
1.1793458847825605e+02 3.8494821847507410e-01 -5.4420683040564787e-14 
1.1793458847825605e+02 3.8494821847507410e-01 -5.4420683040564787e-14 
1.1877159515191124e+02 4.1447454768058378e-01 -5.2530651965164193e-14 
1.1877159515191124e+02 4.1447454768058378e-01 -5.2530651965164193e-14 
1.1793458847825605e+02 3.8494821847507410e-01 -5.4420683040564787e-14 
1.1877159515191124e+02 4.1447454768058378e-01 -5.2530651965164193e-14 
1.0496311362551569e+02 2.9100906096573453e-01 6.8918117859044487e-15 
1.0496311362551569e+02 2.9100906096573453e-01 6.8918117859044487e-15 
1.0283757259503000e+02 3.2445035322962212e-01 1.7711135104350229e-14 
1.0283757259503000e+02 3.2445035322962212e-01 1.7711135104350229e-14 
1.0496311362551569e+02 2.9100906096573453e-01 6.8918117859044487e-15 
1.0283757259503000e+02 3.2445035322962212e-01 1.7711135104350229e-14 
1.1611743933516391e+02 3.0366312184378330e-01 -5.4058130913128076e-14 
1.1611743933516391e+02 3.0366312184378330e-01 -5.4058130913128076e-14 
1.1707934997078155e+02 3.4147007602950907e-01 -6.6257454886813326e-14 
1.1707934997078155e+02 3.4147007602950907e-01 -6.6257454886813326e-14 
1.1611743933516391e+02 3.0366312184378330e-01 -5.4058130913128076e-14 
1.1707934997078155e+02 3.4147007602950907e-01 -6.6257454886813326e-14 
1.0986610469179686e+02 2.4583902454014606e-01 2.7342387243924519e-14 
1.0986610469179686e+02 2.4583902454014606e-01 2.7342387243924519e-14 
1.0727257449083027e+02 2.6598062866469263e-01 2.8825062811555848e-14 
1.0727257449083027e+02 2.6598062866469263e-01 2.8825062811555848e-14 
1.0986610469179686e+02 2.4583902454014606e-01 2.7342387243924519e-14 
1.0727257449083027e+02 2.6598062866469263e-01 2.8825062811555848e-14 
1.1382250826950713e+02 2.7704245145832829e-01 4.3322900678293271e-14 
1.1382250826950713e+02 2.7704245145832829e-01 4.3322900678293271e-14 
1.1496276509831932e+02 2.8791255489522882e-01 -9.5759388715709969e-15 
1.1496276509831932e+02 2.8791255489522882e-01 -9.5759388715709969e-15 
1.1382250826950713e+02 2.7704245145832829e-01 4.3322900678293271e-14 
1.1496276509831932e+02 2.8791255489522882e-01 -9.5759388715709969e-15 
1.1604073422993315e+02 2.5337667153689836e-01 -7.3225890175761393e-14 
1.1604073422993315e+02 2.5337667153689836e-01 -7.3225890175761393e-14 
1.1285131275225740e+02 2.2809610916192469e-01 -1.5415709906642466e-14 
1.1285131275225740e+02 2.2809610916192469e-01 -1.5415709906642466e-14 
1.1604073422993315e+02 2.5337667153689836e-01 -7.3225890175761393e-14 
1.1285131275225740e+02 2.2809610916192469e-01 -1.5415709906642466e-14 
1.1086911911410425e+02 2.8134783283621800e-01 1.4890925040434550e-13 
1.1086911911410425e+02 2.8134783283621800e-01 1.4890925040434550e-13 
1.1235149788906438e+02 2.7630633248463710e-01 9.9298148426934648e-14 
1.1235149788906438e+02 2.7630633248463710e-01 9.9298148426934648e-14 
1.1086911911410425e+02 2.8134783283621800e-01 1.4890925040434550e-13 
1.1235149788906438e+02 2.7630633248463710e-01 9.9298148426934648e-14 
1.2396760562545387e+02 2.7673540195883106e-01 -2.0259926733833848e-13 
1.2396760562545387e+02 2.7673540195883106e-01 -2.0259926733833848e-13 
1.1985617872720832e+02 2.4070161629515496e-01 -1.4255244872020764e-13 
1.1985617872720832e+02 2.4070161629515496e-01 -1.4255244872020764e-13 
1.2396760562545387e+02 2.7673540195883106e-01 -2.0259926733833848e-13 
1.1985617872720832e+02 2.4070161629515496e-01 -1.4255244872020764e-13 
1.0715186663839813e+02 2.8565089615221950e-01 1.3316350059626173e-13 
1.0715186663839813e+02 2.8565089615221950e-01 1.3316350059626173e-13 
1.0911733428218213e+02 2.8241118562618794e-01 1.5832634574404600e-13 
1.0911733428218213e+02 2.8241118562618794e-01 1.5832634574404600e-13 
1.0715186663839813e+02 2.8565089615221950e-01 1.3316350059626173e-13 
1.0911733428218213e+02 2.8241118562618794e-01 1.5832634574404600e-13 
1.3408090406720021e+02 2.9791833457147732e-01 -1.5786070270165700e-13 
1.3408090406720021e+02 2.9791833457147732e-01 -1.5786070270165700e-13 
1.2872887603964045e+02 2.8435634417201072e-01 -2.0394106557490725e-13 
1.2872887603964045e+02 2.8435634417201072e-01 -2.0394106557490725e-13 
1.3408090406720021e+02 2.9791833457147732e-01 -1.5786070270165700e-13 
1.2872887603964045e+02 2.8435634417201072e-01 -2.0394106557490725e-13 
1.0246855659048015e+02 2.4087705871170328e-01 3.0082049503549644e-14 
1.0246855659048015e+02 2.4087705871170328e-01 3.0082049503549644e-14 
1.0502971521001200e+02 2.7814041916008136e-01 9.1373065620326809e-14 
1.0502971521001200e+02 2.7814041916008136e-01 9.1373065620326809e-14 
1.0246855659048015e+02 2.4087705871170328e-01 3.0082049503549644e-14 
1.0502971521001200e+02 2.7814041916008136e-01 9.1373065620326809e-14 
1.4678186523807926e+02 2.7652705560467439e-01 -4.8901636366369226e-14 
1.4678186523807926e+02 2.7652705560467439e-01 -4.8901636366369226e-14 
1.3998108526979831e+02 3.2672342087334982e-01 -1.0285072201973866e-13 
1.3998108526979831e+02 3.2672342087334982e-01 -1.0285072201973866e-13 
1.4678186523807926e+02 2.7652705560467439e-01 -4.8901636366369226e-14 
1.3998108526979831e+02 3.2672342087334982e-01 -1.0285072201973866e-13 
9.6428553585944428e+01 4.2103175410557014e-01 -5.3811228944681816e-14 
9.6428553585944428e+01 4.2103175410557014e-01 -5.3811228944681816e-14 
9.9689785181064508e+01 2.8146177249163884e-01 -2.8168986732887817e-14 
9.9689785181064508e+01 2.8146177249163884e-01 -2.8168986732887817e-14 
9.6428553585944428e+01 4.2103175410557014e-01 -5.3811228944681816e-14 
9.9689785181064508e+01 2.8146177249163884e-01 -2.8168986732887817e-14 
1.6197739977943957e+02 4.5870860443983474e-01 -5.3315362692820898e-15 
1.6197739977943957e+02 4.5870860443983474e-01 -5.3315362692820898e-15 
1.5400913202927813e+02 3.5667229464479533e-01 -8.1861317055488981e-15 
1.5400913202927813e+02 3.5667229464479533e-01 -8.1861317055488981e-15 
1.6197739977943957e+02 4.5870860443983474e-01 -5.3315362692820898e-15 
1.5400913202927813e+02 3.5667229464479533e-01 -8.1861317055488981e-15 
8.8261080476775078e+01 2.8114189866755623e-02 -6.1171808183729626e-14 
8.8261080476775078e+01 2.8114189866755623e-02 -6.1171808183729626e-14 
9.2632490429889003e+01 5.4788348246711394e-01 -5.9818633526636375e-14 
9.2632490429889003e+01 5.4788348246711394e-01 -5.9818633526636375e-14 
8.8261080476775078e+01 2.8114189866755623e-02 -6.1171808183729626e-14 
9.2632490429889003e+01 5.4788348246711394e-01 -5.9818633526636375e-14 
1.7885024312643827e+02 2.7652876631555046e-01 -1.6575409386718451e-14 
1.7885024312643827e+02 2.7652876631555046e-01 -1.6575409386718451e-14 
1.7029463308065806e+02 6.0599020386553093e-01 -1.7767680230308355e-14 
1.7029463308065806e+02 6.0599020386553093e-01 -1.7767680230308355e-14 
1.7885024312643827e+02 2.7652876631555046e-01 -1.6575409386718451e-14 
1.7029463308065806e+02 6.0599020386553093e-01 -1.7767680230308355e-14 
7.6431244262918881e+01 5.9159018731088509e-01 -8.1566913334875108e-14 
7.6431244262918881e+01 5.9159018731088509e-01 -8.1566913334875108e-14 
8.3005056484707893e+01 -8.0329655318610094e-01 -6.4640172970094854e-14 
8.3005056484707893e+01 -8.0329655318610094e-01 -6.4640172970094854e-14 
7.6431244262918881e+01 5.9159018731088509e-01 -8.1566913334875108e-14 
8.3005056484708348e+01 -8.0329655318655568e-01 -6.4640172970096066e-14 
1.9368138723612242e+02 8.9853089618873128e-01 6.1168772035955119e-14 
1.9368138723612242e+02 8.9853089618873128e-01 6.1168772035955119e-14 
1.8721377504181601e+02 -2.9146346941183765e-01 9.4462985798532789e-15 
1.8721377504181601e+02 -2.9146346941183765e-01 9.4462985798532789e-15 
1.9368138723612242e+02 8.9853089618873128e-01 6.1168772035955119e-14 
1.8721377504181646e+02 -2.9146346941229240e-01 9.4462985798565101e-15 
5.8316760804251544e+01 7.1808559972005241e+00 -2.0683343312841842e-13 
5.8316760804251544e+01 7.1808559972005241e+00 -2.0683343312841842e-13 
6.8623355378880888e+01 6.8803977257480256e+00 -1.4078420084291354e-13 
6.8623355378880888e+01 6.8803977257480256e+00 -1.4078420084291354e-13 
5.8316760804251544e+01 7.1808559972005241e+00 -2.0683343312841842e-13 
6.8623355378880888e+01 6.8803977257480256e+00 -1.4078420084291354e-13 
1.9952546134213526e+02 5.7272266847696756e+00 2.6418815745678488e-13 
1.9952546134213526e+02 5.7272266847696756e+00 2.6418815745678488e-13 
1.9608072167478133e+02 5.5039983540323192e+00 1.6204019390135678e-13 
1.9608072167478133e+02 5.5039983540323192e+00 1.6204019390135678e-13 
1.9952546134213526e+02 5.7272266847696756e+00 2.6418815745678488e-13 
1.9608072167478133e+02 5.5039983540323192e+00 1.6204019390135678e-13 
2.3820442807147174e+01 -5.2098037485005079e+01 -2.0807726938777281e-13 
2.3820442807147174e+01 -5.2098037485005079e+01 -2.0807726938777281e-13 
4.4097834721137360e+01 -2.5830501172715003e+01 -2.2897924083695086e-13 
4.4097834721137360e+01 -2.5830501172715003e+01 -2.2897924083695086e-13 
2.3820442807147174e+01 -5.2098037485005079e+01 -2.0807726938777281e-13 
4.4097834721137588e+01 -2.5830501172715458e+01 -2.2897924083694985e-13 
2.2873020154069440e+02 -3.5657203790742813e+01 2.7259450692123811e-13 
2.2873020154069440e+02 -3.5657203790742813e+01 2.7259450692123811e-13 
2.1654016271984580e+02 -1.8028331405138033e+01 3.0116330831771923e-13 
2.1654016271984580e+02 -1.8028331405138033e+01 3.0116330831771923e-13 
2.2873020154069440e+02 -3.5657203790742813e+01 2.7259450692123811e-13 
2.1654016271984585e+02 -1.8028331405138374e+01 3.0116330831771807e-13 
-1.7108855001794154e+01 2.9301315327753582e+02 -5.1122445967317596e-14 
3.0092372013835984e+00 3.3701453157858157e+02 7.7390434162505747e-15 
-1.7108855001794154e+01 2.9301315327753582e+02 -5.1122445967317596e-14 
3.0092372013835984e+00 3.3701453157858157e+02 7.7390434162505747e-15 
2.2779039098273870e+00 3.9813119479616944e+01 -1.4833879762081183e-13 
9.4589696475395613e-03 3.3856034355031397e+02 -1.5865345707050714e-16 
2.2779039098273870e+00 3.9813119479616944e+01 -1.4833879762081183e-13 
9.4589696475395613e-03 3.3856034355031397e+02 -1.5865345707050714e-16 
-1.7108855001794154e+01 2.9301315327753582e+02 -5.1122445967317596e-14 
3.0092372013835984e+00 3.3701453157858157e+02 7.7390434162505747e-15 
2.2779039098273870e+00 3.9813119479616944e+01 -1.4833879762081183e-13 
9.4589696475395613e-03 3.3856034355031397e+02 -1.5865345707050714e-16 
-6.1443842849224097e+00 2.8333199395563196e+02 -8.1754268502305219e-15 
-6.1443842849224097e+00 2.8333199395563196e+02 -8.1754268502305219e-15 
-1.6950243965709433e-01 3.1483447073030129e+02 2.9282516801803958e-27 
-1.6950243965709433e-01 3.1483447073030129e+02 2.9282516801803958e-27 
-6.1443842849224097e+00 2.8333199395563196e+02 -8.1754268502305219e-15 
-1.6950243965709433e-01 3.1483447073030129e+02 2.9282516801803958e-27 
4.0586616885633532e+01 2.0058160724612543e+02 5.4978134324885060e-14 
4.0586616885633532e+01 2.0058160724612543e+02 5.4978134324885060e-14 
1.7769206693212186e+02 2.6711800698595539e+01 1.8823106490109194e-13 
-6.1364332654810028e-01 2.4576725578483200e+02 -3.2819642883070140e-24 
1.7769206693212186e+02 2.6711800698595539e+01 1.8823106490109194e-13 
-6.1364332654810028e-01 2.4576725578483200e+02 -3.2819642883070140e-24 
4.0586616885633532e+01 2.0058160724612543e+02 5.4978134324885060e-14 
1.7769206693212186e+02 2.6711800698595539e+01 1.8823106490109194e-13 
-6.1364332654801501e-01 2.4576725578483206e+02 -3.2820526407283987e-24 

