# vtk DataFile Version 2.0

ASCII

DATASET UNSTRUCTURED_GRID

POINTS 33 float 

-5.0000000000000003e-02  3.3333333335000000e-02  1.4999999999999997e-01
-5.0000000000000003e-02  9.9999999985000018e-02  1.4999999999999999e-01
-5.0000000000000003e-02  1.6666666665000002e-01  1.4999999999999999e-01
-5.0000000000000003e-02  2.3333333334999998e-01  1.4999999999999999e-01
-5.0000000000000003e-02  2.9999999999999993e-01  1.4999999999999997e-01
-5.0000000000000003e-02  3.6666666665000003e-01  1.4999999999999999e-01
-5.0000000000000003e-02  4.3333333335000002e-01  1.4999999999999999e-01
-5.0000000000000003e-02  5.0000000000000000e-01  1.4999999999999997e-01
-5.0000000000000003e-02  5.6666666664999987e-01  1.4999999999999999e-01
-5.0000000000000003e-02  6.3333333334999986e-01  1.4999999999999999e-01
-5.0000000000000003e-02  6.9999999999999984e-01  1.4999999999999997e-01
-5.0000000000000003e-02  7.6666666664999994e-01  1.4999999999999999e-01
-4.9999999999999996e-02  8.3333333334999982e-01  1.4999999999999999e-01
-5.0000000000000003e-02  8.9999999999999991e-01  1.4999999999999997e-01
-5.0000000000000003e-02  9.6666666664999990e-01  1.4999999999999999e-01
-3.3333333335000000e-02  9.9999999999999978e-01  1.4999999999999997e-01
0.0000000000000000e+00  1.0000000000000000e+00  1.4999999999999997e-01
3.3333333335000007e-02  1.0000000000000000e+00  1.4999999999999999e-01
5.0000000000000003e-02  3.3333333335000000e-02  1.4999999999999999e-01
5.0000000000000003e-02  9.9999999985000004e-02  1.4999999999999999e-01
5.0000000000000003e-02  1.6666666664999999e-01  1.4999999999999999e-01
5.0000000000000003e-02  2.3333333334999998e-01  1.4999999999999999e-01
5.0000000000000003e-02  2.9999999999999993e-01  1.4999999999999997e-01
5.0000000000000003e-02  3.6666666665000003e-01  1.4999999999999999e-01
5.0000000000000003e-02  4.3333333334999991e-01  1.4999999999999999e-01
5.0000000000000003e-02  5.0000000000000000e-01  1.4999999999999997e-01
5.0000000000000003e-02  5.6666666664999987e-01  1.4999999999999999e-01
5.0000000000000003e-02  6.3333333334999997e-01  1.4999999999999999e-01
5.0000000000000003e-02  6.9999999999999984e-01  1.4999999999999997e-01
5.0000000000000003e-02  7.6666666664999994e-01  1.4999999999999999e-01
5.0000000000000003e-02  8.3333333334999993e-01  1.4999999999999999e-01
5.0000000000000010e-02  8.9999999999999991e-01  1.4999999999999999e-01
5.0000000000000003e-02  9.6666666664999990e-01  1.4999999999999999e-01

CELLS 0 0


CELL_TYPES 0


POINT_DATA 33

VECTORS VertexNormals float

0.0000000000000000e+00 0.0000000000000000e+00 0.0000000000000000e+00 
0.0000000000000000e+00 0.0000000000000000e+00 0.0000000000000000e+00 
0.0000000000000000e+00 0.0000000000000000e+00 0.0000000000000000e+00 
0.0000000000000000e+00 0.0000000000000000e+00 0.0000000000000000e+00 
0.0000000000000000e+00 0.0000000000000000e+00 0.0000000000000000e+00 
0.0000000000000000e+00 0.0000000000000000e+00 0.0000000000000000e+00 
0.0000000000000000e+00 0.0000000000000000e+00 0.0000000000000000e+00 
0.0000000000000000e+00 0.0000000000000000e+00 0.0000000000000000e+00 
0.0000000000000000e+00 0.0000000000000000e+00 0.0000000000000000e+00 
0.0000000000000000e+00 0.0000000000000000e+00 0.0000000000000000e+00 
0.0000000000000000e+00 0.0000000000000000e+00 0.0000000000000000e+00 
0.0000000000000000e+00 0.0000000000000000e+00 0.0000000000000000e+00 
0.0000000000000000e+00 0.0000000000000000e+00 0.0000000000000000e+00 
0.0000000000000000e+00 0.0000000000000000e+00 0.0000000000000000e+00 
0.0000000000000000e+00 0.0000000000000000e+00 0.0000000000000000e+00 
0.0000000000000000e+00 0.0000000000000000e+00 0.0000000000000000e+00 
0.0000000000000000e+00 0.0000000000000000e+00 0.0000000000000000e+00 
0.0000000000000000e+00 0.0000000000000000e+00 0.0000000000000000e+00 
0.0000000000000000e+00 0.0000000000000000e+00 0.0000000000000000e+00 
0.0000000000000000e+00 0.0000000000000000e+00 0.0000000000000000e+00 
0.0000000000000000e+00 0.0000000000000000e+00 0.0000000000000000e+00 
0.0000000000000000e+00 0.0000000000000000e+00 0.0000000000000000e+00 
0.0000000000000000e+00 0.0000000000000000e+00 0.0000000000000000e+00 
0.0000000000000000e+00 0.0000000000000000e+00 0.0000000000000000e+00 
0.0000000000000000e+00 0.0000000000000000e+00 0.0000000000000000e+00 
0.0000000000000000e+00 0.0000000000000000e+00 0.0000000000000000e+00 
0.0000000000000000e+00 0.0000000000000000e+00 0.0000000000000000e+00 
0.0000000000000000e+00 0.0000000000000000e+00 0.0000000000000000e+00 
0.0000000000000000e+00 0.0000000000000000e+00 0.0000000000000000e+00 
0.0000000000000000e+00 0.0000000000000000e+00 0.0000000000000000e+00 
0.0000000000000000e+00 0.0000000000000000e+00 0.0000000000000000e+00 
0.0000000000000000e+00 0.0000000000000000e+00 0.0000000000000000e+00 
0.0000000000000000e+00 0.0000000000000000e+00 0.0000000000000000e+00 

VECTORS Stress float
1.6355017435950126e+02 -4.3788717121119340e+00 -6.8685157212536546e-13 
1.6337483427437456e+02 -1.2696134949674272e+01 -8.0132749623894057e-13 
1.6258428612496934e+02 -2.1473659627478938e+01 5.3887335725727599e-13 
1.6074539497373985e+02 -2.8635517915966410e+01 1.8858501552006014e-12 
1.5768068595243903e+02 -3.4159371949371000e+01 1.2305679338829265e-12 
1.5333663770222833e+02 -3.8469502098260577e+01 6.7048056068465027e-13 
1.4780821450375919e+02 -4.1958222138531440e+01 1.4798016697679505e-12 
1.4142877612635615e+02 -4.4249515136542101e+01 1.2047550077668458e-12 
1.3413984768950939e+02 -4.5648132702056976e+01 -2.8173315887924126e-15 
1.2584299316606766e+02 -4.6386240450138843e+01 -3.9843449910975653e-13 
1.1685583390837570e+02 -4.6026066618903997e+01 3.2810860461179379e-13 
1.0743695247523441e+02 -4.4174658946199543e+01 1.2364278635064950e-12 
9.6703036046767124e+01 -4.1220035036203008e+01 8.5585819289510482e-13 
8.4010658779935653e+01 -3.6504695429774451e+01 -1.2248747724251089e-14 
6.7001767904764932e+01 -2.9130943586368403e+01 3.1519256260829326e-14 
1.4499197068268701e+01 3.2736262815093518e+01 1.8116063260642321e-16 
5.3406321224862543e+00 1.2351687819368447e+01 8.6388088551094376e-17 
-9.8938813709684292e-01 -1.8784347734227516e+00 -8.1628405860690843e-17 
-5.0666566004228358e+01 1.4776608146208388e+00 3.3784174763207044e-13 
-5.0753929468174995e+01 4.3008790241487498e+00 6.7871043306711839e-13 
-5.0440967260044019e+01 7.2169910129490837e+00 -5.9435664314488031e-13 
-4.9671214904945806e+01 9.5171075791927571e+00 -1.5026431869510947e-12 
-4.8470470659623977e+01 1.1176253155793638e+01 -5.6281477695783173e-13 
-4.6838716556552832e+01 1.2523676949000659e+01 -1.3477912780039001e-12 
-4.4751687193692035e+01 1.3460002786071090e+01 -1.7092012214363718e-12 
-4.2253369101296826e+01 1.4011843787423818e+01 -3.6661151846873634e-13 
-3.9433672086208638e+01 1.4197953062283576e+01 3.7890216049326303e-13 
-3.6340546434229033e+01 1.4202104193655467e+01 3.9018154744566182e-13 
-3.2953533604650993e+01 1.3645327304486042e+01 -1.1278252010809818e-12 
-2.9290762434104302e+01 1.2625344581589790e+01 -1.9618409422651987e-12 
-2.5526588222564484e+01 1.1379517296030334e+01 -7.0242523369617617e-13 
-2.1836875502086560e+01 9.8953169286982536e+00 1.7232435164097807e-12 
-1.8525083442556074e+01 8.4627347044763717e+00 1.8002655005079226e-12 

