# vtk DataFile Version 2.0

ASCII

DATASET UNSTRUCTURED_GRID

POINTS 33 float 

-5.0000000000000003e-02  3.3333333335000000e-02  1.4999999999999997e-01
-5.0000000000000003e-02  9.9999999985000018e-02  1.4999999999999999e-01
-5.0000000000000003e-02  1.6666666665000002e-01  1.4999999999999999e-01
-5.0000000000000003e-02  2.3333333334999998e-01  1.4999999999999999e-01
-5.0000000000000003e-02  2.9999999999999993e-01  1.4999999999999997e-01
-5.0000000000000003e-02  3.6666666665000003e-01  1.4999999999999999e-01
-5.0000000000000003e-02  4.3333333335000002e-01  1.4999999999999999e-01
-5.0000000000000003e-02  5.0000000000000000e-01  1.4999999999999997e-01
-5.0000000000000003e-02  5.6666666664999987e-01  1.4999999999999999e-01
-5.0000000000000003e-02  6.3333333334999986e-01  1.4999999999999999e-01
-5.0000000000000003e-02  6.9999999999999984e-01  1.4999999999999997e-01
-5.0000000000000003e-02  7.6666666664999994e-01  1.4999999999999999e-01
-4.9999999999999996e-02  8.3333333334999982e-01  1.4999999999999999e-01
-5.0000000000000003e-02  8.9999999999999991e-01  1.4999999999999997e-01
-5.0000000000000003e-02  9.6666666664999990e-01  1.4999999999999999e-01
-3.3333333335000000e-02  9.9999999999999978e-01  1.4999999999999997e-01
0.0000000000000000e+00  1.0000000000000000e+00  1.4999999999999997e-01
3.3333333335000007e-02  1.0000000000000000e+00  1.4999999999999999e-01
5.0000000000000003e-02  3.3333333335000000e-02  1.4999999999999999e-01
5.0000000000000003e-02  9.9999999985000004e-02  1.4999999999999999e-01
5.0000000000000003e-02  1.6666666664999999e-01  1.4999999999999999e-01
5.0000000000000003e-02  2.3333333334999998e-01  1.4999999999999999e-01
5.0000000000000003e-02  2.9999999999999993e-01  1.4999999999999997e-01
5.0000000000000003e-02  3.6666666665000003e-01  1.4999999999999999e-01
5.0000000000000003e-02  4.3333333334999991e-01  1.4999999999999999e-01
5.0000000000000003e-02  5.0000000000000000e-01  1.4999999999999997e-01
5.0000000000000003e-02  5.6666666664999987e-01  1.4999999999999999e-01
5.0000000000000003e-02  6.3333333334999997e-01  1.4999999999999999e-01
5.0000000000000003e-02  6.9999999999999984e-01  1.4999999999999997e-01
5.0000000000000003e-02  7.6666666664999994e-01  1.4999999999999999e-01
5.0000000000000003e-02  8.3333333334999993e-01  1.4999999999999999e-01
5.0000000000000010e-02  8.9999999999999991e-01  1.4999999999999999e-01
5.0000000000000003e-02  9.6666666664999990e-01  1.4999999999999999e-01

CELLS 0 0


CELL_TYPES 0


POINT_DATA 33

VECTORS VertexNormals float

0.0000000000000000e+00 0.0000000000000000e+00 0.0000000000000000e+00 
0.0000000000000000e+00 0.0000000000000000e+00 0.0000000000000000e+00 
0.0000000000000000e+00 0.0000000000000000e+00 0.0000000000000000e+00 
0.0000000000000000e+00 0.0000000000000000e+00 0.0000000000000000e+00 
0.0000000000000000e+00 0.0000000000000000e+00 0.0000000000000000e+00 
0.0000000000000000e+00 0.0000000000000000e+00 0.0000000000000000e+00 
0.0000000000000000e+00 0.0000000000000000e+00 0.0000000000000000e+00 
0.0000000000000000e+00 0.0000000000000000e+00 0.0000000000000000e+00 
0.0000000000000000e+00 0.0000000000000000e+00 0.0000000000000000e+00 
0.0000000000000000e+00 0.0000000000000000e+00 0.0000000000000000e+00 
0.0000000000000000e+00 0.0000000000000000e+00 0.0000000000000000e+00 
0.0000000000000000e+00 0.0000000000000000e+00 0.0000000000000000e+00 
0.0000000000000000e+00 0.0000000000000000e+00 0.0000000000000000e+00 
0.0000000000000000e+00 0.0000000000000000e+00 0.0000000000000000e+00 
0.0000000000000000e+00 0.0000000000000000e+00 0.0000000000000000e+00 
0.0000000000000000e+00 0.0000000000000000e+00 0.0000000000000000e+00 
0.0000000000000000e+00 0.0000000000000000e+00 0.0000000000000000e+00 
0.0000000000000000e+00 0.0000000000000000e+00 0.0000000000000000e+00 
0.0000000000000000e+00 0.0000000000000000e+00 0.0000000000000000e+00 
0.0000000000000000e+00 0.0000000000000000e+00 0.0000000000000000e+00 
0.0000000000000000e+00 0.0000000000000000e+00 0.0000000000000000e+00 
0.0000000000000000e+00 0.0000000000000000e+00 0.0000000000000000e+00 
0.0000000000000000e+00 0.0000000000000000e+00 0.0000000000000000e+00 
0.0000000000000000e+00 0.0000000000000000e+00 0.0000000000000000e+00 
0.0000000000000000e+00 0.0000000000000000e+00 0.0000000000000000e+00 
0.0000000000000000e+00 0.0000000000000000e+00 0.0000000000000000e+00 
0.0000000000000000e+00 0.0000000000000000e+00 0.0000000000000000e+00 
0.0000000000000000e+00 0.0000000000000000e+00 0.0000000000000000e+00 
0.0000000000000000e+00 0.0000000000000000e+00 0.0000000000000000e+00 
0.0000000000000000e+00 0.0000000000000000e+00 0.0000000000000000e+00 
0.0000000000000000e+00 0.0000000000000000e+00 0.0000000000000000e+00 
0.0000000000000000e+00 0.0000000000000000e+00 0.0000000000000000e+00 
0.0000000000000000e+00 0.0000000000000000e+00 0.0000000000000000e+00 

VECTORS Stress float
1.3473849050514536e+02 -4.6079989461122493e+00 -4.1878276688151778e-13 
1.3470981006628907e+02 -1.0177235311515512e+01 -4.6717119722919193e-13 
1.3430328088316199e+02 -1.5723885962798850e+01 5.9975542727234587e-13 
1.3316174692295178e+02 -2.0276356613171277e+01 3.5970488004716873e-13 
1.3104990588831080e+02 -2.3849524341932582e+01 -2.8801768528671565e-13 
1.2793979140755469e+02 -2.6528710434447053e+01 1.2567084345340784e-12 
1.2402173340379628e+02 -2.7933548159183594e+01 1.5562487634625794e-12 
1.1946699099281348e+02 -2.8127861468583529e+01 1.3223360718929819e-13 
1.1411643135051767e+02 -2.7722884940576815e+01 -9.7103293130054913e-13 
1.0789739308737806e+02 -2.6690482808391984e+01 -7.9789026025148590e-13 
1.0080833300095713e+02 -2.5028271463085570e+01 1.3301048727398818e-12 
9.2746723290793383e+01 -2.2679882738193331e+01 2.3047082117363378e-12 
8.2836347060069002e+01 -1.9642514090371371e+01 1.0363647101252007e-12 
6.9087017103982120e+01 -1.5546347234802942e+01 1.2905379431371340e-13 
4.6179469525177105e+01 -1.0008262048189446e+01 6.4159417820342803e-14 
1.8060223232901745e+01 7.9554736645285573e+01 -3.5314804939554058e-19 
1.3380204945194121e+01 5.9372527509831428e+01 -2.1617274811676756e-18 
9.2604275841463313e+00 4.1830240464304566e+01 5.6256819717589750e-17 
3.7911538972680825e+00 -1.3940741617905919e-01 -7.5829659817319885e-13 
3.5839172105551338e+00 -2.7642826284355743e-01 -1.1140569653651554e-12 
3.6626913587965908e+00 -4.2148243903283417e-01 -7.2468313008317086e-13 
4.2006103325330901e+00 -6.2014110010323020e-01 -3.9160152940961820e-13 
5.3173404081943785e+00 -9.3375447004947421e-01 -1.7729653185714221e-14 
7.0155897861100982e+00 -1.4110580622183237e+00 -1.1480023839256212e-12 
9.2662607719491294e+00 -2.0180008771123408e+00 -1.3889322119882453e-12 
1.1959900487317013e+01 -2.7351882105352971e+00 -1.7456039168072380e-13 
1.4935524057241590e+01 -3.5162474600004705e+00 7.4529081425946498e-13 
1.7927502768810335e+01 -4.3162950433715803e+00 6.8726807986587224e-13 
2.0991900707226684e+01 -5.0437625841045843e+00 -1.7161818473582674e-12 
2.4026688478214574e+01 -5.6960739231416202e+00 -2.6720456186042742e-12 
2.6601018107982981e+01 -6.1091615591673323e+00 -9.1384055822388012e-13 
2.8158923795110628e+01 -6.1916812113367099e+00 5.8489672172459084e-13 
2.8448859476657038e+01 -6.1393383930848122e+00 5.7784720559302130e-13 

