# vtk DataFile Version 2.0

ASCII

DATASET UNSTRUCTURED_GRID

POINTS 33 float 

-5.0000000000000003e-02  3.3333333335000000e-02  1.4999999999999997e-01
-5.0000000000000003e-02  9.9999999985000018e-02  1.4999999999999999e-01
-5.0000000000000003e-02  1.6666666665000002e-01  1.4999999999999999e-01
-5.0000000000000003e-02  2.3333333334999998e-01  1.4999999999999999e-01
-5.0000000000000003e-02  2.9999999999999993e-01  1.4999999999999997e-01
-5.0000000000000003e-02  3.6666666665000003e-01  1.4999999999999999e-01
-5.0000000000000003e-02  4.3333333335000002e-01  1.4999999999999999e-01
-5.0000000000000003e-02  5.0000000000000000e-01  1.4999999999999997e-01
-5.0000000000000003e-02  5.6666666664999987e-01  1.4999999999999999e-01
-5.0000000000000003e-02  6.3333333334999986e-01  1.4999999999999999e-01
-5.0000000000000003e-02  6.9999999999999984e-01  1.4999999999999997e-01
-5.0000000000000003e-02  7.6666666664999994e-01  1.4999999999999999e-01
-4.9999999999999996e-02  8.3333333334999982e-01  1.4999999999999999e-01
-5.0000000000000003e-02  8.9999999999999991e-01  1.4999999999999997e-01
-5.0000000000000003e-02  9.6666666664999990e-01  1.4999999999999999e-01
-3.3333333335000000e-02  9.9999999999999978e-01  1.4999999999999997e-01
0.0000000000000000e+00  1.0000000000000000e+00  1.4999999999999997e-01
3.3333333335000007e-02  1.0000000000000000e+00  1.4999999999999999e-01
5.0000000000000003e-02  3.3333333335000000e-02  1.4999999999999999e-01
5.0000000000000003e-02  9.9999999985000004e-02  1.4999999999999999e-01
5.0000000000000003e-02  1.6666666664999999e-01  1.4999999999999999e-01
5.0000000000000003e-02  2.3333333334999998e-01  1.4999999999999999e-01
5.0000000000000003e-02  2.9999999999999993e-01  1.4999999999999997e-01
5.0000000000000003e-02  3.6666666665000003e-01  1.4999999999999999e-01
5.0000000000000003e-02  4.3333333334999991e-01  1.4999999999999999e-01
5.0000000000000003e-02  5.0000000000000000e-01  1.4999999999999997e-01
5.0000000000000003e-02  5.6666666664999987e-01  1.4999999999999999e-01
5.0000000000000003e-02  6.3333333334999997e-01  1.4999999999999999e-01
5.0000000000000003e-02  6.9999999999999984e-01  1.4999999999999997e-01
5.0000000000000003e-02  7.6666666664999994e-01  1.4999999999999999e-01
5.0000000000000003e-02  8.3333333334999993e-01  1.4999999999999999e-01
5.0000000000000010e-02  8.9999999999999991e-01  1.4999999999999999e-01
5.0000000000000003e-02  9.6666666664999990e-01  1.4999999999999999e-01

CELLS 0 0


CELL_TYPES 0


POINT_DATA 33

VECTORS VertexNormals float

0.0000000000000000e+00 0.0000000000000000e+00 0.0000000000000000e+00 
0.0000000000000000e+00 0.0000000000000000e+00 0.0000000000000000e+00 
0.0000000000000000e+00 0.0000000000000000e+00 0.0000000000000000e+00 
0.0000000000000000e+00 0.0000000000000000e+00 0.0000000000000000e+00 
0.0000000000000000e+00 0.0000000000000000e+00 0.0000000000000000e+00 
0.0000000000000000e+00 0.0000000000000000e+00 0.0000000000000000e+00 
0.0000000000000000e+00 0.0000000000000000e+00 0.0000000000000000e+00 
0.0000000000000000e+00 0.0000000000000000e+00 0.0000000000000000e+00 
0.0000000000000000e+00 0.0000000000000000e+00 0.0000000000000000e+00 
0.0000000000000000e+00 0.0000000000000000e+00 0.0000000000000000e+00 
0.0000000000000000e+00 0.0000000000000000e+00 0.0000000000000000e+00 
0.0000000000000000e+00 0.0000000000000000e+00 0.0000000000000000e+00 
0.0000000000000000e+00 0.0000000000000000e+00 0.0000000000000000e+00 
0.0000000000000000e+00 0.0000000000000000e+00 0.0000000000000000e+00 
0.0000000000000000e+00 0.0000000000000000e+00 0.0000000000000000e+00 
0.0000000000000000e+00 0.0000000000000000e+00 0.0000000000000000e+00 
0.0000000000000000e+00 0.0000000000000000e+00 0.0000000000000000e+00 
0.0000000000000000e+00 0.0000000000000000e+00 0.0000000000000000e+00 
0.0000000000000000e+00 0.0000000000000000e+00 0.0000000000000000e+00 
0.0000000000000000e+00 0.0000000000000000e+00 0.0000000000000000e+00 
0.0000000000000000e+00 0.0000000000000000e+00 0.0000000000000000e+00 
0.0000000000000000e+00 0.0000000000000000e+00 0.0000000000000000e+00 
0.0000000000000000e+00 0.0000000000000000e+00 0.0000000000000000e+00 
0.0000000000000000e+00 0.0000000000000000e+00 0.0000000000000000e+00 
0.0000000000000000e+00 0.0000000000000000e+00 0.0000000000000000e+00 
0.0000000000000000e+00 0.0000000000000000e+00 0.0000000000000000e+00 
0.0000000000000000e+00 0.0000000000000000e+00 0.0000000000000000e+00 
0.0000000000000000e+00 0.0000000000000000e+00 0.0000000000000000e+00 
0.0000000000000000e+00 0.0000000000000000e+00 0.0000000000000000e+00 
0.0000000000000000e+00 0.0000000000000000e+00 0.0000000000000000e+00 
0.0000000000000000e+00 0.0000000000000000e+00 0.0000000000000000e+00 
0.0000000000000000e+00 0.0000000000000000e+00 0.0000000000000000e+00 
0.0000000000000000e+00 0.0000000000000000e+00 0.0000000000000000e+00 

VECTORS Stress float
1.7267100565912125e+02 -7.2334625674417188e+00 -1.0105837919224845e-12 
1.7240638795164841e+02 -1.5129780084162062e+01 -8.4221940090379971e-13 
1.7170482903151401e+02 -2.2452354195862263e+01 -5.2734832884421629e-13 
1.6967147006034816e+02 -2.9931007282862382e+01 -5.9215531762620647e-13 
1.6611899007623541e+02 -3.6706012842994902e+01 9.5735531694094623e-14 
1.6129199807974348e+02 -4.1894002978567435e+01 1.5923414870794973e-12 
1.5522735828356355e+02 -4.5871194618824745e+01 2.5688276304799131e-12 
1.4811064032877033e+02 -4.8788973034110839e+01 2.4573878500542702e-13 
1.4010888040661578e+02 -5.0921617872666857e+01 -2.7244346468073851e-12 
1.3165389785942187e+02 -5.1708142040755696e+01 -1.9878379282039061e-12 
1.2254651388326194e+02 -5.1503796023590873e+01 9.3293029703789926e-13 
1.1284261628398875e+02 -5.0124155214161853e+01 1.9374550371419225e-12 
1.0256355444103770e+02 -4.7036204618417294e+01 7.1500450304368958e-13 
9.0620103862339761e+01 -4.2116965846997395e+01 4.3857951803977084e-13 
7.4246692502767004e+01 -3.4692523981312455e+01 6.6212608851063527e-13 
1.1143796468664366e+01 2.3383722482331329e+01 -6.2105099931767939e-17 
1.2315245915928521e+00 2.8009360619550043e+00 1.3777470739316101e-19 
-5.5129583482749176e+00 -1.1312073301148278e+01 8.2073232941491262e-17 
-6.0111188389898167e+01 2.7577829499238988e+00 9.8738031319665607e-13 
-6.0179697246690516e+01 5.6943189556169953e+00 9.4872283357365580e-13 
-5.9999993461483072e+01 8.4472440558491506e+00 2.9329634153053300e-14 
-5.9392033762033485e+01 1.1310137125549300e+01 1.4012933427493543e-12 
-5.8317303194928108e+01 1.3806233525277561e+01 1.3299432942913210e-12 
-5.6817087487328365e+01 1.5786477939287144e+01 -2.4520623018853503e-12 
-5.4953014787699573e+01 1.7268315297116715e+01 -3.6130278032022168e-12 
-5.2671027343897251e+01 1.8493421815560918e+01 -5.7863849252364909e-13 
-4.9937088111372383e+01 1.9237870533136253e+01 2.5281414304500008e-12 
-4.6806417946097817e+01 1.9454178654837918e+01 1.9574845553449560e-12 
-4.3343899020111081e+01 1.9179351783385346e+01 -1.3934830731780269e-12 
-3.9589223224369121e+01 1.8380041800634217e+01 -2.7341071886073908e-12 
-3.5617101109081190e+01 1.6917344219441578e+01 -6.5335213826380583e-13 
-3.1720519469760930e+01 1.5233699545229735e+01 3.5501048738834431e-12 
-2.8319544852596763e+01 1.3733148197306763e+01 3.2524422776227412e-12 

