# vtk DataFile Version 2.0

ASCII

DATASET UNSTRUCTURED_GRID

POINTS 33 float 

-5.0000000000000003e-02  3.3333333335000000e-02  1.4999999999999997e-01
-5.0000000000000003e-02  9.9999999985000018e-02  1.4999999999999999e-01
-5.0000000000000003e-02  1.6666666665000002e-01  1.4999999999999999e-01
-5.0000000000000003e-02  2.3333333334999998e-01  1.4999999999999999e-01
-5.0000000000000003e-02  2.9999999999999993e-01  1.4999999999999997e-01
-5.0000000000000003e-02  3.6666666665000003e-01  1.4999999999999999e-01
-5.0000000000000003e-02  4.3333333335000002e-01  1.4999999999999999e-01
-5.0000000000000003e-02  5.0000000000000000e-01  1.4999999999999997e-01
-5.0000000000000003e-02  5.6666666664999987e-01  1.4999999999999999e-01
-5.0000000000000003e-02  6.3333333334999986e-01  1.4999999999999999e-01
-5.0000000000000003e-02  6.9999999999999984e-01  1.4999999999999997e-01
-5.0000000000000003e-02  7.6666666664999994e-01  1.4999999999999999e-01
-4.9999999999999996e-02  8.3333333334999982e-01  1.4999999999999999e-01
-5.0000000000000003e-02  8.9999999999999991e-01  1.4999999999999997e-01
-5.0000000000000003e-02  9.6666666664999990e-01  1.4999999999999999e-01
-3.3333333335000000e-02  9.9999999999999978e-01  1.4999999999999997e-01
0.0000000000000000e+00  1.0000000000000000e+00  1.4999999999999997e-01
3.3333333335000007e-02  1.0000000000000000e+00  1.4999999999999999e-01
5.0000000000000003e-02  3.3333333335000000e-02  1.4999999999999999e-01
5.0000000000000003e-02  9.9999999985000004e-02  1.4999999999999999e-01
5.0000000000000003e-02  1.6666666664999999e-01  1.4999999999999999e-01
5.0000000000000003e-02  2.3333333334999998e-01  1.4999999999999999e-01
5.0000000000000003e-02  2.9999999999999993e-01  1.4999999999999997e-01
5.0000000000000003e-02  3.6666666665000003e-01  1.4999999999999999e-01
5.0000000000000003e-02  4.3333333334999991e-01  1.4999999999999999e-01
5.0000000000000003e-02  5.0000000000000000e-01  1.4999999999999997e-01
5.0000000000000003e-02  5.6666666664999987e-01  1.4999999999999999e-01
5.0000000000000003e-02  6.3333333334999997e-01  1.4999999999999999e-01
5.0000000000000003e-02  6.9999999999999984e-01  1.4999999999999997e-01
5.0000000000000003e-02  7.6666666664999994e-01  1.4999999999999999e-01
5.0000000000000003e-02  8.3333333334999993e-01  1.4999999999999999e-01
5.0000000000000010e-02  8.9999999999999991e-01  1.4999999999999999e-01
5.0000000000000003e-02  9.6666666664999990e-01  1.4999999999999999e-01

CELLS 0 0


CELL_TYPES 0


POINT_DATA 33

VECTORS VertexNormals float

0.0000000000000000e+00 0.0000000000000000e+00 0.0000000000000000e+00 
0.0000000000000000e+00 0.0000000000000000e+00 0.0000000000000000e+00 
0.0000000000000000e+00 0.0000000000000000e+00 0.0000000000000000e+00 
0.0000000000000000e+00 0.0000000000000000e+00 0.0000000000000000e+00 
0.0000000000000000e+00 0.0000000000000000e+00 0.0000000000000000e+00 
0.0000000000000000e+00 0.0000000000000000e+00 0.0000000000000000e+00 
0.0000000000000000e+00 0.0000000000000000e+00 0.0000000000000000e+00 
0.0000000000000000e+00 0.0000000000000000e+00 0.0000000000000000e+00 
0.0000000000000000e+00 0.0000000000000000e+00 0.0000000000000000e+00 
0.0000000000000000e+00 0.0000000000000000e+00 0.0000000000000000e+00 
0.0000000000000000e+00 0.0000000000000000e+00 0.0000000000000000e+00 
0.0000000000000000e+00 0.0000000000000000e+00 0.0000000000000000e+00 
0.0000000000000000e+00 0.0000000000000000e+00 0.0000000000000000e+00 
0.0000000000000000e+00 0.0000000000000000e+00 0.0000000000000000e+00 
0.0000000000000000e+00 0.0000000000000000e+00 0.0000000000000000e+00 
0.0000000000000000e+00 0.0000000000000000e+00 0.0000000000000000e+00 
0.0000000000000000e+00 0.0000000000000000e+00 0.0000000000000000e+00 
0.0000000000000000e+00 0.0000000000000000e+00 0.0000000000000000e+00 
0.0000000000000000e+00 0.0000000000000000e+00 0.0000000000000000e+00 
0.0000000000000000e+00 0.0000000000000000e+00 0.0000000000000000e+00 
0.0000000000000000e+00 0.0000000000000000e+00 0.0000000000000000e+00 
0.0000000000000000e+00 0.0000000000000000e+00 0.0000000000000000e+00 
0.0000000000000000e+00 0.0000000000000000e+00 0.0000000000000000e+00 
0.0000000000000000e+00 0.0000000000000000e+00 0.0000000000000000e+00 
0.0000000000000000e+00 0.0000000000000000e+00 0.0000000000000000e+00 
0.0000000000000000e+00 0.0000000000000000e+00 0.0000000000000000e+00 
0.0000000000000000e+00 0.0000000000000000e+00 0.0000000000000000e+00 
0.0000000000000000e+00 0.0000000000000000e+00 0.0000000000000000e+00 
0.0000000000000000e+00 0.0000000000000000e+00 0.0000000000000000e+00 
0.0000000000000000e+00 0.0000000000000000e+00 0.0000000000000000e+00 
0.0000000000000000e+00 0.0000000000000000e+00 0.0000000000000000e+00 
0.0000000000000000e+00 0.0000000000000000e+00 0.0000000000000000e+00 
0.0000000000000000e+00 0.0000000000000000e+00 0.0000000000000000e+00 

VECTORS Stress float
1.3678829795991726e+02 -4.4970503660537613e+00 1.2073917377166346e-12 
1.3674927957169902e+02 -1.0395187071235808e+01 1.6115468521209441e-12 
1.3637481453917238e+02 -1.5808291958152010e+01 3.4876193739144166e-13 
1.3518481343728601e+02 -2.0671309510981807e+01 -4.9673881044112371e-13 
1.3299735706697930e+02 -2.4412635574892615e+01 -4.3538139444613252e-13 
1.2983346690875229e+02 -2.7082708286084255e+01 -3.1358711983375022e-13 
1.2574617655493074e+02 -2.8815566413480841e+01 7.9797496279380928e-14 
1.2092085949027610e+02 -2.9345054539399737e+01 1.1813398129910478e-13 
1.1535367865483906e+02 -2.9032867334980001e+01 -5.8850212928137841e-14 
1.0884731366657566e+02 -2.8416685278309860e+01 2.1327468893715418e-13 
1.0174216263103241e+02 -2.6837583048075761e+01 8.7950459434890175e-14 
9.3978478638876837e+01 -2.4121360403247351e+01 -2.7450796461203938e-13 
8.4331390288879106e+01 -2.0642618394234386e+01 -9.0956514489762925e-13 
7.0245437223765848e+01 -1.6611948286536339e+01 -1.9441935940949342e-12 
4.7242387798469721e+01 -1.0917873717330094e+01 -1.3310289396560509e-12 
1.8440943755833754e+01 7.6462557502822335e+01 -3.1444306597907829e-19 
1.3459830617770100e+01 5.6343254448182279e+01 3.0471167707966126e-19 
9.1921889118546236e+00 3.9045103048989013e+01 7.9655474682243497e-17 
6.5349189533839458e-01 -2.2178710461693875e-02 2.4305916348315676e-13 
4.5056760623403752e-01 -2.3286647238308811e-02 -1.4000978616043788e-13 
5.2989653536400050e-01 -3.2385397308351944e-02 -6.9013782782833366e-13 
1.0731738732469418e+00 -1.1894087473427245e-01 4.1644560812929159e-13 
2.1625407640716405e+00 -3.4036354871112728e-01 7.2576414090625675e-13 
3.8634703155161216e+00 -7.3842547330479591e-01 8.0697171236432100e-14 
6.0720103107940275e+00 -1.3124959779307712e+00 -2.2507619589412014e-13 
8.6936780959293500e+00 -2.0143706552183720e+00 -4.5641841836141483e-13 
1.1578076297035516e+01 -2.8119202333295976e+00 -3.8733865034828054e-15 
1.4601910464060898e+01 -3.6886538013547550e+00 1.4627633805355012e-13 
1.7793409455480862e+01 -4.5209794338357927e+00 4.1828537258965101e-13 
2.1081573079401089e+01 -5.1933894597529315e+00 9.7482512387577795e-13 
2.3761267187901176e+01 -5.6242207234910824e+00 1.0076958299867369e-12 
2.5140464826681526e+01 -5.7973036102098590e+00 1.8065654874618225e-12 
2.5325511315047077e+01 -5.8268339044652082e+00 1.4426579278684623e-12 

