# vtk DataFile Version 2.0

ASCII

DATASET UNSTRUCTURED_GRID

POINTS 33 float 

-5.0000000000000003e-02  3.3333333335000000e-02  1.4999999999999997e-01
-5.0000000000000003e-02  9.9999999985000018e-02  1.4999999999999999e-01
-5.0000000000000003e-02  1.6666666665000002e-01  1.4999999999999999e-01
-5.0000000000000003e-02  2.3333333334999998e-01  1.4999999999999999e-01
-5.0000000000000003e-02  2.9999999999999993e-01  1.4999999999999997e-01
-5.0000000000000003e-02  3.6666666665000003e-01  1.4999999999999999e-01
-5.0000000000000003e-02  4.3333333335000002e-01  1.4999999999999999e-01
-5.0000000000000003e-02  5.0000000000000000e-01  1.4999999999999997e-01
-5.0000000000000003e-02  5.6666666664999987e-01  1.4999999999999999e-01
-5.0000000000000003e-02  6.3333333334999986e-01  1.4999999999999999e-01
-5.0000000000000003e-02  6.9999999999999984e-01  1.4999999999999997e-01
-5.0000000000000003e-02  7.6666666664999994e-01  1.4999999999999999e-01
-4.9999999999999996e-02  8.3333333334999982e-01  1.4999999999999999e-01
-5.0000000000000003e-02  8.9999999999999991e-01  1.4999999999999997e-01
-5.0000000000000003e-02  9.6666666664999990e-01  1.4999999999999999e-01
-3.3333333335000000e-02  9.9999999999999978e-01  1.4999999999999997e-01
0.0000000000000000e+00  1.0000000000000000e+00  1.4999999999999997e-01
3.3333333335000007e-02  1.0000000000000000e+00  1.4999999999999999e-01
5.0000000000000003e-02  3.3333333335000000e-02  1.4999999999999999e-01
5.0000000000000003e-02  9.9999999985000004e-02  1.4999999999999999e-01
5.0000000000000003e-02  1.6666666664999999e-01  1.4999999999999999e-01
5.0000000000000003e-02  2.3333333334999998e-01  1.4999999999999999e-01
5.0000000000000003e-02  2.9999999999999993e-01  1.4999999999999997e-01
5.0000000000000003e-02  3.6666666665000003e-01  1.4999999999999999e-01
5.0000000000000003e-02  4.3333333334999991e-01  1.4999999999999999e-01
5.0000000000000003e-02  5.0000000000000000e-01  1.4999999999999997e-01
5.0000000000000003e-02  5.6666666664999987e-01  1.4999999999999999e-01
5.0000000000000003e-02  6.3333333334999997e-01  1.4999999999999999e-01
5.0000000000000003e-02  6.9999999999999984e-01  1.4999999999999997e-01
5.0000000000000003e-02  7.6666666664999994e-01  1.4999999999999999e-01
5.0000000000000003e-02  8.3333333334999993e-01  1.4999999999999999e-01
5.0000000000000010e-02  8.9999999999999991e-01  1.4999999999999999e-01
5.0000000000000003e-02  9.6666666664999990e-01  1.4999999999999999e-01

CELLS 0 0


CELL_TYPES 0


POINT_DATA 33

VECTORS VertexNormals float

0.0000000000000000e+00 0.0000000000000000e+00 0.0000000000000000e+00 
0.0000000000000000e+00 0.0000000000000000e+00 0.0000000000000000e+00 
0.0000000000000000e+00 0.0000000000000000e+00 0.0000000000000000e+00 
0.0000000000000000e+00 0.0000000000000000e+00 0.0000000000000000e+00 
0.0000000000000000e+00 0.0000000000000000e+00 0.0000000000000000e+00 
0.0000000000000000e+00 0.0000000000000000e+00 0.0000000000000000e+00 
0.0000000000000000e+00 0.0000000000000000e+00 0.0000000000000000e+00 
0.0000000000000000e+00 0.0000000000000000e+00 0.0000000000000000e+00 
0.0000000000000000e+00 0.0000000000000000e+00 0.0000000000000000e+00 
0.0000000000000000e+00 0.0000000000000000e+00 0.0000000000000000e+00 
0.0000000000000000e+00 0.0000000000000000e+00 0.0000000000000000e+00 
0.0000000000000000e+00 0.0000000000000000e+00 0.0000000000000000e+00 
0.0000000000000000e+00 0.0000000000000000e+00 0.0000000000000000e+00 
0.0000000000000000e+00 0.0000000000000000e+00 0.0000000000000000e+00 
0.0000000000000000e+00 0.0000000000000000e+00 0.0000000000000000e+00 
0.0000000000000000e+00 0.0000000000000000e+00 0.0000000000000000e+00 
0.0000000000000000e+00 0.0000000000000000e+00 0.0000000000000000e+00 
0.0000000000000000e+00 0.0000000000000000e+00 0.0000000000000000e+00 
0.0000000000000000e+00 0.0000000000000000e+00 0.0000000000000000e+00 
0.0000000000000000e+00 0.0000000000000000e+00 0.0000000000000000e+00 
0.0000000000000000e+00 0.0000000000000000e+00 0.0000000000000000e+00 
0.0000000000000000e+00 0.0000000000000000e+00 0.0000000000000000e+00 
0.0000000000000000e+00 0.0000000000000000e+00 0.0000000000000000e+00 
0.0000000000000000e+00 0.0000000000000000e+00 0.0000000000000000e+00 
0.0000000000000000e+00 0.0000000000000000e+00 0.0000000000000000e+00 
0.0000000000000000e+00 0.0000000000000000e+00 0.0000000000000000e+00 
0.0000000000000000e+00 0.0000000000000000e+00 0.0000000000000000e+00 
0.0000000000000000e+00 0.0000000000000000e+00 0.0000000000000000e+00 
0.0000000000000000e+00 0.0000000000000000e+00 0.0000000000000000e+00 
0.0000000000000000e+00 0.0000000000000000e+00 0.0000000000000000e+00 
0.0000000000000000e+00 0.0000000000000000e+00 0.0000000000000000e+00 
0.0000000000000000e+00 0.0000000000000000e+00 0.0000000000000000e+00 
0.0000000000000000e+00 0.0000000000000000e+00 0.0000000000000000e+00 

VECTORS Stress float
2.1739590536236318e+02 -1.1509252988301260e+01 -6.9058851072048463e-13 
2.1618024946232754e+02 -2.7057472516643355e+01 -1.8443950856774518e-12 
2.1330189497655550e+02 -4.2542263886745971e+01 -1.1000438110996545e-12 
2.0830897553911214e+02 -5.5878376130237385e+01 9.0078078077097324e-13 
2.0186047123153327e+02 -6.5961796074529175e+01 8.4225716765302428e-13 
1.9427261531567743e+02 -7.4038327476880028e+01 3.7646817781610464e-12 
1.8634777032541265e+02 -7.9695110410809605e+01 4.4003802852642997e-12 
1.7846597864987802e+02 -8.3190730012757697e+01 6.8471946832690220e-14 
1.7063448119468296e+02 -8.5146060933030398e+01 -2.7288136291412438e-13 
1.6296330978477428e+02 -8.5944995894409701e+01 2.9949499103479415e-13 
1.5609336573500630e+02 -8.4873653302662447e+01 -9.1182754181909565e-13 
1.4992914454233187e+02 -8.1707454501886346e+01 -8.0004844688647735e-13 
1.4305923201167190e+02 -7.6944951794651885e+01 -2.3467673386978904e-13 
1.3325051633437718e+02 -7.1115439985863318e+01 -1.1502662363647652e-12 
1.1841057188792081e+02 -6.3081069219135628e+01 -7.5918176626863236e-13 
-1.3650196994206366e+01 -2.5632051381856826e+01 1.9641908020095907e-16 
-2.5469816708431559e+01 -4.7277582500963419e+01 8.8434630544414105e-17 
-3.3525823318997986e+01 -6.2197427003719994e+01 -8.2455105575258394e-17 
-9.4080804016390971e+01 5.7638704218482575e+00 3.5860598127585784e-12 
-9.3427169292231454e+01 1.3206403456531044e+01 4.6142768977990366e-12 
-9.2369323672925773e+01 2.0604997192405911e+01 7.1435106510488998e-13 
-9.1163639900145071e+01 2.7007941475670922e+01 -2.3844958030957398e-12 
-9.0047320310280753e+01 3.2154830710207619e+01 -2.1081013584241562e-12 
-8.8896977755362215e+01 3.6603275675500043e+01 -2.6068444893911986e-12 
-8.7822561734079954e+01 4.0137649349173508e+01 -3.3349660068186974e-12 
-8.6849741837697422e+01 4.2742622651031965e+01 -3.0617128024411332e-13 
-8.5715195732261805e+01 4.4827281273502329e+01 5.3081702642073516e-13 
-8.4459094194119601e+01 4.5992438504826481e+01 1.2606612427276422e-13 
-8.3194890551578141e+01 4.5907123643187042e+01 7.8828878099501175e-13 
-8.1885455174780247e+01 4.4719387836958717e+01 6.5283733647718143e-13 
-8.0356056531903235e+01 4.3324099475399706e+01 2.9206722527462538e-13 
-7.8625346975998994e+01 4.2338059731190711e+01 6.1874471169762051e-13 
-7.6746069656618317e+01 4.1391727044650445e+01 1.9193916354169679e-13 

