# vtk DataFile Version 2.0

ASCII

DATASET UNSTRUCTURED_GRID

POINTS 33 float 

-5.0000000000000003e-02  3.3333333335000000e-02  1.4999999999999997e-01
-5.0000000000000003e-02  9.9999999985000018e-02  1.4999999999999999e-01
-5.0000000000000003e-02  1.6666666665000002e-01  1.4999999999999999e-01
-5.0000000000000003e-02  2.3333333334999998e-01  1.4999999999999999e-01
-5.0000000000000003e-02  2.9999999999999993e-01  1.4999999999999997e-01
-5.0000000000000003e-02  3.6666666665000003e-01  1.4999999999999999e-01
-5.0000000000000003e-02  4.3333333335000002e-01  1.4999999999999999e-01
-5.0000000000000003e-02  5.0000000000000000e-01  1.4999999999999997e-01
-5.0000000000000003e-02  5.6666666664999987e-01  1.4999999999999999e-01
-5.0000000000000003e-02  6.3333333334999986e-01  1.4999999999999999e-01
-5.0000000000000003e-02  6.9999999999999984e-01  1.4999999999999997e-01
-5.0000000000000003e-02  7.6666666664999994e-01  1.4999999999999999e-01
-4.9999999999999996e-02  8.3333333334999982e-01  1.4999999999999999e-01
-5.0000000000000003e-02  8.9999999999999991e-01  1.4999999999999997e-01
-5.0000000000000003e-02  9.6666666664999990e-01  1.4999999999999999e-01
-3.3333333335000000e-02  9.9999999999999978e-01  1.4999999999999997e-01
0.0000000000000000e+00  1.0000000000000000e+00  1.4999999999999997e-01
3.3333333335000007e-02  1.0000000000000000e+00  1.4999999999999999e-01
5.0000000000000003e-02  3.3333333335000000e-02  1.4999999999999999e-01
5.0000000000000003e-02  9.9999999985000004e-02  1.4999999999999999e-01
5.0000000000000003e-02  1.6666666664999999e-01  1.4999999999999999e-01
5.0000000000000003e-02  2.3333333334999998e-01  1.4999999999999999e-01
5.0000000000000003e-02  2.9999999999999993e-01  1.4999999999999997e-01
5.0000000000000003e-02  3.6666666665000003e-01  1.4999999999999999e-01
5.0000000000000003e-02  4.3333333334999991e-01  1.4999999999999999e-01
5.0000000000000003e-02  5.0000000000000000e-01  1.4999999999999997e-01
5.0000000000000003e-02  5.6666666664999987e-01  1.4999999999999999e-01
5.0000000000000003e-02  6.3333333334999997e-01  1.4999999999999999e-01
5.0000000000000003e-02  6.9999999999999984e-01  1.4999999999999997e-01
5.0000000000000003e-02  7.6666666664999994e-01  1.4999999999999999e-01
5.0000000000000003e-02  8.3333333334999993e-01  1.4999999999999999e-01
5.0000000000000010e-02  8.9999999999999991e-01  1.4999999999999999e-01
5.0000000000000003e-02  9.6666666664999990e-01  1.4999999999999999e-01

CELLS 0 0


CELL_TYPES 0


POINT_DATA 33

VECTORS VertexNormals float

0.0000000000000000e+00 0.0000000000000000e+00 0.0000000000000000e+00 
0.0000000000000000e+00 0.0000000000000000e+00 0.0000000000000000e+00 
0.0000000000000000e+00 0.0000000000000000e+00 0.0000000000000000e+00 
0.0000000000000000e+00 0.0000000000000000e+00 0.0000000000000000e+00 
0.0000000000000000e+00 0.0000000000000000e+00 0.0000000000000000e+00 
0.0000000000000000e+00 0.0000000000000000e+00 0.0000000000000000e+00 
0.0000000000000000e+00 0.0000000000000000e+00 0.0000000000000000e+00 
0.0000000000000000e+00 0.0000000000000000e+00 0.0000000000000000e+00 
0.0000000000000000e+00 0.0000000000000000e+00 0.0000000000000000e+00 
0.0000000000000000e+00 0.0000000000000000e+00 0.0000000000000000e+00 
0.0000000000000000e+00 0.0000000000000000e+00 0.0000000000000000e+00 
0.0000000000000000e+00 0.0000000000000000e+00 0.0000000000000000e+00 
0.0000000000000000e+00 0.0000000000000000e+00 0.0000000000000000e+00 
0.0000000000000000e+00 0.0000000000000000e+00 0.0000000000000000e+00 
0.0000000000000000e+00 0.0000000000000000e+00 0.0000000000000000e+00 
0.0000000000000000e+00 0.0000000000000000e+00 0.0000000000000000e+00 
0.0000000000000000e+00 0.0000000000000000e+00 0.0000000000000000e+00 
0.0000000000000000e+00 0.0000000000000000e+00 0.0000000000000000e+00 
0.0000000000000000e+00 0.0000000000000000e+00 0.0000000000000000e+00 
0.0000000000000000e+00 0.0000000000000000e+00 0.0000000000000000e+00 
0.0000000000000000e+00 0.0000000000000000e+00 0.0000000000000000e+00 
0.0000000000000000e+00 0.0000000000000000e+00 0.0000000000000000e+00 
0.0000000000000000e+00 0.0000000000000000e+00 0.0000000000000000e+00 
0.0000000000000000e+00 0.0000000000000000e+00 0.0000000000000000e+00 
0.0000000000000000e+00 0.0000000000000000e+00 0.0000000000000000e+00 
0.0000000000000000e+00 0.0000000000000000e+00 0.0000000000000000e+00 
0.0000000000000000e+00 0.0000000000000000e+00 0.0000000000000000e+00 
0.0000000000000000e+00 0.0000000000000000e+00 0.0000000000000000e+00 
0.0000000000000000e+00 0.0000000000000000e+00 0.0000000000000000e+00 
0.0000000000000000e+00 0.0000000000000000e+00 0.0000000000000000e+00 
0.0000000000000000e+00 0.0000000000000000e+00 0.0000000000000000e+00 
0.0000000000000000e+00 0.0000000000000000e+00 0.0000000000000000e+00 
0.0000000000000000e+00 0.0000000000000000e+00 0.0000000000000000e+00 

VECTORS Stress float
1.0999016243910101e+02 -3.0250282294330013e+00 -7.5667076582083335e-15 
1.0996934935997827e+02 -5.5240125718024835e+00 -2.6361208051457890e-14 
1.0952313512329363e+02 -7.2563549229168061e+00 -8.2614951546860555e-14 
1.0866228176597382e+02 -7.9811304619563925e+00 -5.4446466606511184e-13 
1.0744298995492014e+02 -7.8160396476969805e+00 -4.7827258877095778e-13 
1.0590191182002479e+02 -6.8765271519194906e+00 -7.9121355989604824e-14 
1.0400033603345891e+02 -5.3777946858030505e+00 -2.8292183474270422e-13 
1.0162295041725532e+02 -3.6786307106752201e+00 -2.5691984397625651e-13 
9.8640761942957056e+01 -1.7505957829570553e+00 -1.6762018597387189e-13 
9.4739326784415425e+01 -2.3203954253558928e-01 -1.1458087892388603e-13 
8.9567911978019822e+01 1.0037734447731812e+00 1.7104828294843834e-14 
8.2581187027601359e+01 1.8958322015799294e+00 6.9778611536584044e-14 
7.2409906902542318e+01 2.3742129810845163e+00 3.6371391216831814e-14 
5.5890194853159976e+01 2.6931650827150104e+00 3.2042706039607363e-13 
2.2809816958736867e+01 1.5070664352145187e+00 3.4098624799233850e-13 
-7.8510722382596621e+00 1.7124303723881735e+02 -7.9500743417432401e-17 
-6.9723134277942229e+00 1.5142108118475056e+02 -2.5667301601574951e-17 
-5.9621400995865335e+00 1.2168307112388587e+02 8.0848013354117942e-17 
9.2280473410514276e+01 -2.5791971762331074e+00 -4.0647052769011109e-13 
9.2160379729242948e+01 -4.7913622414769446e+00 -3.3998703508794755e-13 
9.2433691794544075e+01 -6.2241655822914179e+00 5.4749205600742089e-14 
9.3293429754073685e+01 -6.8630007172057486e+00 4.2546425965015349e-13 
9.4879870965665788e+01 -6.8290296272683575e+00 4.4327823649296455e-13 
9.7287314080288496e+01 -6.2077676821223458e+00 1.9132413143977012e-13 
1.0047658336190705e+02 -5.0707527112346549e+00 4.8127377911642987e-13 
1.0418866122181646e+02 -3.6594471839425626e+00 3.7211536178273948e-13 
1.0801048136187453e+02 -1.8542577191667384e+00 -1.0486315230163281e-13 
1.1125796049957589e+02 -2.7059309313677099e-01 -1.8677706670997895e-13 
1.1338637300392645e+02 1.2053790245031677e+00 1.0285911913275444e-13 
1.1404434342185152e+02 2.4566260230563990e+00 1.6253475437899158e-13 
1.1293203770298396e+02 3.4445921908552966e+00 3.3458657418029863e-14 
1.0981929000967037e+02 4.7162324036488377e+00 4.8765924397674008e-14 
1.0462859057731430e+02 5.3012245521179748e+00 7.3950092445417738e-14 

