# vtk DataFile Version 2.0

ASCII

DATASET UNSTRUCTURED_GRID

POINTS 33 float 

-5.0000000000000003e-02  3.3333333335000000e-02  1.4999999999999997e-01
-5.0000000000000003e-02  9.9999999985000018e-02  1.4999999999999999e-01
-5.0000000000000003e-02  1.6666666665000002e-01  1.4999999999999999e-01
-5.0000000000000003e-02  2.3333333334999998e-01  1.4999999999999999e-01
-5.0000000000000003e-02  2.9999999999999993e-01  1.4999999999999997e-01
-5.0000000000000003e-02  3.6666666665000003e-01  1.4999999999999999e-01
-5.0000000000000003e-02  4.3333333335000002e-01  1.4999999999999999e-01
-5.0000000000000003e-02  5.0000000000000000e-01  1.4999999999999997e-01
-5.0000000000000003e-02  5.6666666664999987e-01  1.4999999999999999e-01
-5.0000000000000003e-02  6.3333333334999986e-01  1.4999999999999999e-01
-5.0000000000000003e-02  6.9999999999999984e-01  1.4999999999999997e-01
-5.0000000000000003e-02  7.6666666664999994e-01  1.4999999999999999e-01
-4.9999999999999996e-02  8.3333333334999982e-01  1.4999999999999999e-01
-5.0000000000000003e-02  8.9999999999999991e-01  1.4999999999999997e-01
-5.0000000000000003e-02  9.6666666664999990e-01  1.4999999999999999e-01
-3.3333333335000000e-02  9.9999999999999978e-01  1.4999999999999997e-01
0.0000000000000000e+00  1.0000000000000000e+00  1.4999999999999997e-01
3.3333333335000007e-02  1.0000000000000000e+00  1.4999999999999999e-01
5.0000000000000003e-02  3.3333333335000000e-02  1.4999999999999999e-01
5.0000000000000003e-02  9.9999999985000004e-02  1.4999999999999999e-01
5.0000000000000003e-02  1.6666666664999999e-01  1.4999999999999999e-01
5.0000000000000003e-02  2.3333333334999998e-01  1.4999999999999999e-01
5.0000000000000003e-02  2.9999999999999993e-01  1.4999999999999997e-01
5.0000000000000003e-02  3.6666666665000003e-01  1.4999999999999999e-01
5.0000000000000003e-02  4.3333333334999991e-01  1.4999999999999999e-01
5.0000000000000003e-02  5.0000000000000000e-01  1.4999999999999997e-01
5.0000000000000003e-02  5.6666666664999987e-01  1.4999999999999999e-01
5.0000000000000003e-02  6.3333333334999997e-01  1.4999999999999999e-01
5.0000000000000003e-02  6.9999999999999984e-01  1.4999999999999997e-01
5.0000000000000003e-02  7.6666666664999994e-01  1.4999999999999999e-01
5.0000000000000003e-02  8.3333333334999993e-01  1.4999999999999999e-01
5.0000000000000010e-02  8.9999999999999991e-01  1.4999999999999999e-01
5.0000000000000003e-02  9.6666666664999990e-01  1.4999999999999999e-01

CELLS 0 0


CELL_TYPES 0


POINT_DATA 33

VECTORS VertexNormals float

0.0000000000000000e+00 0.0000000000000000e+00 0.0000000000000000e+00 
0.0000000000000000e+00 0.0000000000000000e+00 0.0000000000000000e+00 
0.0000000000000000e+00 0.0000000000000000e+00 0.0000000000000000e+00 
0.0000000000000000e+00 0.0000000000000000e+00 0.0000000000000000e+00 
0.0000000000000000e+00 0.0000000000000000e+00 0.0000000000000000e+00 
0.0000000000000000e+00 0.0000000000000000e+00 0.0000000000000000e+00 
0.0000000000000000e+00 0.0000000000000000e+00 0.0000000000000000e+00 
0.0000000000000000e+00 0.0000000000000000e+00 0.0000000000000000e+00 
0.0000000000000000e+00 0.0000000000000000e+00 0.0000000000000000e+00 
0.0000000000000000e+00 0.0000000000000000e+00 0.0000000000000000e+00 
0.0000000000000000e+00 0.0000000000000000e+00 0.0000000000000000e+00 
0.0000000000000000e+00 0.0000000000000000e+00 0.0000000000000000e+00 
0.0000000000000000e+00 0.0000000000000000e+00 0.0000000000000000e+00 
0.0000000000000000e+00 0.0000000000000000e+00 0.0000000000000000e+00 
0.0000000000000000e+00 0.0000000000000000e+00 0.0000000000000000e+00 
0.0000000000000000e+00 0.0000000000000000e+00 0.0000000000000000e+00 
0.0000000000000000e+00 0.0000000000000000e+00 0.0000000000000000e+00 
0.0000000000000000e+00 0.0000000000000000e+00 0.0000000000000000e+00 
0.0000000000000000e+00 0.0000000000000000e+00 0.0000000000000000e+00 
0.0000000000000000e+00 0.0000000000000000e+00 0.0000000000000000e+00 
0.0000000000000000e+00 0.0000000000000000e+00 0.0000000000000000e+00 
0.0000000000000000e+00 0.0000000000000000e+00 0.0000000000000000e+00 
0.0000000000000000e+00 0.0000000000000000e+00 0.0000000000000000e+00 
0.0000000000000000e+00 0.0000000000000000e+00 0.0000000000000000e+00 
0.0000000000000000e+00 0.0000000000000000e+00 0.0000000000000000e+00 
0.0000000000000000e+00 0.0000000000000000e+00 0.0000000000000000e+00 
0.0000000000000000e+00 0.0000000000000000e+00 0.0000000000000000e+00 
0.0000000000000000e+00 0.0000000000000000e+00 0.0000000000000000e+00 
0.0000000000000000e+00 0.0000000000000000e+00 0.0000000000000000e+00 
0.0000000000000000e+00 0.0000000000000000e+00 0.0000000000000000e+00 
0.0000000000000000e+00 0.0000000000000000e+00 0.0000000000000000e+00 
0.0000000000000000e+00 0.0000000000000000e+00 0.0000000000000000e+00 
0.0000000000000000e+00 0.0000000000000000e+00 0.0000000000000000e+00 

VECTORS Stress float
2.0687999068307542e+02 -8.3159556742584915e+00 -1.5965258657061368e-12 
2.0616811679924268e+02 -2.1192479684225411e+01 -1.8628970471044244e-12 
2.0422245545986050e+02 -3.4506133536599698e+01 -1.2065010961377018e-13 
2.0018806380201048e+02 -4.6600052832891144e+01 1.0462012568582825e-12 
1.9425223179855871e+02 -5.6854372310098228e+01 8.9617447004719122e-13 
1.8687760483849155e+02 -6.5206787840200533e+01 -3.2060309681284547e-12 
1.7873150867258826e+02 -7.1386930026968187e+01 -4.7224611048444607e-12 
1.7068582156287664e+02 -7.5131269441671918e+01 -9.7827647491839138e-13 
1.6317971366644122e+02 -7.6759672566134029e+01 1.5685077412569831e-12 
1.5579344427753446e+02 -7.7108844693755202e+01 1.0267295100609658e-12 
1.4865827947715266e+02 -7.5863223727889306e+01 -9.7303654853028089e-13 
1.4116781209645987e+02 -7.3411699655137411e+01 -1.5734797574964012e-12 
1.3231656250033021e+02 -7.0130443667444638e+01 -1.0397284381736982e-12 
1.2121535181638802e+02 -6.5710822426492300e+01 -1.0461702353804691e-12 
1.0665220290260886e+02 -5.8392036129219527e+01 -5.6631528375848363e-13 
-8.6800667260332816e+00 -1.5924626316002763e+01 4.3947126572145813e-17 
-2.0648499671641659e+01 -3.7315400890410260e+01 -8.8645011077370629e-17 
-2.8529638151262525e+01 -5.1401738924483908e+01 1.3933568966222852e-16 
-9.2184508137958289e+01 4.0729920895322547e+00 1.1201776758024068e-12 
-9.1854177567211906e+01 1.0533585043970463e+01 1.1914068960859495e-12 
-9.1315548783586209e+01 1.7106400111275285e+01 -1.1460299019872160e-13 
-9.0437553674987214e+01 2.3227122595206680e+01 -1.1254190679111299e-12 
-8.9320700441778655e+01 2.8707731361193137e+01 -9.4831083688221291e-13 
-8.8001528383265807e+01 3.3363296539804715e+01 2.8534252586202899e-12 
-8.6551911051314747e+01 3.7133233762242000e+01 4.2100904103472190e-12 
-8.5097081302081065e+01 3.9536921741540347e+01 9.7794577177641604e-13 
-8.3378461145892629e+01 4.1049894912926625e+01 -1.5107750877849263e-12 
-8.1431961766004818e+01 4.1653388772151843e+01 -1.1545152368766395e-12 
-7.9232745935922878e+01 4.1494226767961592e+01 1.5112552320605811e-12 
-7.6718642642674084e+01 4.0863238440095664e+01 2.0846372513964900e-12 
-7.3794881109857968e+01 4.0134556132592031e+01 5.5951695044913684e-13 
-7.0579995765017927e+01 3.9171358971671744e+01 8.4177115022337899e-14 
-6.7491606173678491e+01 3.7604027959600359e+01 1.1557643657510460e-13 

