# vtk DataFile Version 2.0

ASCII

DATASET UNSTRUCTURED_GRID

POINTS 33 float 

-5.0000000000000003e-02  3.3333333335000000e-02  1.4999999999999997e-01
-5.0000000000000003e-02  9.9999999985000018e-02  1.4999999999999999e-01
-5.0000000000000003e-02  1.6666666665000002e-01  1.4999999999999999e-01
-5.0000000000000003e-02  2.3333333334999998e-01  1.4999999999999999e-01
-5.0000000000000003e-02  2.9999999999999993e-01  1.4999999999999997e-01
-5.0000000000000003e-02  3.6666666665000003e-01  1.4999999999999999e-01
-5.0000000000000003e-02  4.3333333335000002e-01  1.4999999999999999e-01
-5.0000000000000003e-02  5.0000000000000000e-01  1.4999999999999997e-01
-5.0000000000000003e-02  5.6666666664999987e-01  1.4999999999999999e-01
-5.0000000000000003e-02  6.3333333334999986e-01  1.4999999999999999e-01
-5.0000000000000003e-02  6.9999999999999984e-01  1.4999999999999997e-01
-5.0000000000000003e-02  7.6666666664999994e-01  1.4999999999999999e-01
-4.9999999999999996e-02  8.3333333334999982e-01  1.4999999999999999e-01
-5.0000000000000003e-02  8.9999999999999991e-01  1.4999999999999997e-01
-5.0000000000000003e-02  9.6666666664999990e-01  1.4999999999999999e-01
-3.3333333335000000e-02  9.9999999999999978e-01  1.4999999999999997e-01
0.0000000000000000e+00  1.0000000000000000e+00  1.4999999999999997e-01
3.3333333335000007e-02  1.0000000000000000e+00  1.4999999999999999e-01
5.0000000000000003e-02  3.3333333335000000e-02  1.4999999999999999e-01
5.0000000000000003e-02  9.9999999985000004e-02  1.4999999999999999e-01
5.0000000000000003e-02  1.6666666664999999e-01  1.4999999999999999e-01
5.0000000000000003e-02  2.3333333334999998e-01  1.4999999999999999e-01
5.0000000000000003e-02  2.9999999999999993e-01  1.4999999999999997e-01
5.0000000000000003e-02  3.6666666665000003e-01  1.4999999999999999e-01
5.0000000000000003e-02  4.3333333334999991e-01  1.4999999999999999e-01
5.0000000000000003e-02  5.0000000000000000e-01  1.4999999999999997e-01
5.0000000000000003e-02  5.6666666664999987e-01  1.4999999999999999e-01
5.0000000000000003e-02  6.3333333334999997e-01  1.4999999999999999e-01
5.0000000000000003e-02  6.9999999999999984e-01  1.4999999999999997e-01
5.0000000000000003e-02  7.6666666664999994e-01  1.4999999999999999e-01
5.0000000000000003e-02  8.3333333334999993e-01  1.4999999999999999e-01
5.0000000000000010e-02  8.9999999999999991e-01  1.4999999999999999e-01
5.0000000000000003e-02  9.6666666664999990e-01  1.4999999999999999e-01

CELLS 0 0


CELL_TYPES 0


POINT_DATA 33

VECTORS VertexNormals float

0.0000000000000000e+00 0.0000000000000000e+00 0.0000000000000000e+00 
0.0000000000000000e+00 0.0000000000000000e+00 0.0000000000000000e+00 
0.0000000000000000e+00 0.0000000000000000e+00 0.0000000000000000e+00 
0.0000000000000000e+00 0.0000000000000000e+00 0.0000000000000000e+00 
0.0000000000000000e+00 0.0000000000000000e+00 0.0000000000000000e+00 
0.0000000000000000e+00 0.0000000000000000e+00 0.0000000000000000e+00 
0.0000000000000000e+00 0.0000000000000000e+00 0.0000000000000000e+00 
0.0000000000000000e+00 0.0000000000000000e+00 0.0000000000000000e+00 
0.0000000000000000e+00 0.0000000000000000e+00 0.0000000000000000e+00 
0.0000000000000000e+00 0.0000000000000000e+00 0.0000000000000000e+00 
0.0000000000000000e+00 0.0000000000000000e+00 0.0000000000000000e+00 
0.0000000000000000e+00 0.0000000000000000e+00 0.0000000000000000e+00 
0.0000000000000000e+00 0.0000000000000000e+00 0.0000000000000000e+00 
0.0000000000000000e+00 0.0000000000000000e+00 0.0000000000000000e+00 
0.0000000000000000e+00 0.0000000000000000e+00 0.0000000000000000e+00 
0.0000000000000000e+00 0.0000000000000000e+00 0.0000000000000000e+00 
0.0000000000000000e+00 0.0000000000000000e+00 0.0000000000000000e+00 
0.0000000000000000e+00 0.0000000000000000e+00 0.0000000000000000e+00 
0.0000000000000000e+00 0.0000000000000000e+00 0.0000000000000000e+00 
0.0000000000000000e+00 0.0000000000000000e+00 0.0000000000000000e+00 
0.0000000000000000e+00 0.0000000000000000e+00 0.0000000000000000e+00 
0.0000000000000000e+00 0.0000000000000000e+00 0.0000000000000000e+00 
0.0000000000000000e+00 0.0000000000000000e+00 0.0000000000000000e+00 
0.0000000000000000e+00 0.0000000000000000e+00 0.0000000000000000e+00 
0.0000000000000000e+00 0.0000000000000000e+00 0.0000000000000000e+00 
0.0000000000000000e+00 0.0000000000000000e+00 0.0000000000000000e+00 
0.0000000000000000e+00 0.0000000000000000e+00 0.0000000000000000e+00 
0.0000000000000000e+00 0.0000000000000000e+00 0.0000000000000000e+00 
0.0000000000000000e+00 0.0000000000000000e+00 0.0000000000000000e+00 
0.0000000000000000e+00 0.0000000000000000e+00 0.0000000000000000e+00 
0.0000000000000000e+00 0.0000000000000000e+00 0.0000000000000000e+00 
0.0000000000000000e+00 0.0000000000000000e+00 0.0000000000000000e+00 
0.0000000000000000e+00 0.0000000000000000e+00 0.0000000000000000e+00 

VECTORS Stress float
1.5719325456593114e+02 -4.6958630262714243e+00 1.0109128235534406e-12 
1.5710908522725356e+02 -1.1411105464656474e+01 1.3357590487816054e-12 
1.5642319972370029e+02 -1.8876842043724189e+01 8.0550315189400748e-13 
1.5451832921458183e+02 -2.5817283359296862e+01 3.8092673596004209e-13 
1.5131572903960628e+02 -3.1840421401106777e+01 -9.6617143835054365e-14 
1.4718330440979273e+02 -3.6062687984313172e+01 1.3960141335975337e-12 
1.4220262087882446e+02 -3.8815134590385760e+01 1.9760315870302173e-12 
1.3615968767729424e+02 -4.0898157630986425e+01 2.2950983889031260e-13 
1.2924888803346073e+02 -4.2022435970412062e+01 -1.4433317227113311e-12 
1.2177476222163877e+02 -4.1926821670611560e+01 -1.0864820166554510e-12 
1.1333795623698626e+02 -4.1031615353382847e+01 1.8152894984610722e-12 
1.0376097172985992e+02 -3.9122219972975621e+01 1.6870591434075702e-12 
9.2779875959798616e+01 -3.6065188145968825e+01 -7.0826234252251122e-13 
7.9663208425744727e+01 -3.1293847297520529e+01 -5.5052975626717565e-13 
6.1374738720142922e+01 -2.4083600760652505e+01 2.6191812570674609e-14 
1.6917009988772740e+01 4.2238487859179301e+01 9.1661665727229350e-17 
8.7109956571846006e+00 2.2084210515109188e+01 -1.1470575608223677e-16 
2.8140190802963101e+00 7.4642825491705906e+00 1.6217493298343209e-16 
-3.8520254365312965e+01 1.2412076396907183e+00 -2.3137529900021733e-12 
-3.8642197741125322e+01 3.0381521838217185e+00 -2.9301958129670422e-12 
-3.8509303401934552e+01 5.0256907382306144e+00 -7.7935205043872963e-13 
-3.7951580736205273e+01 6.8703729456686231e+00 5.9951243248053509e-14 
-3.6797039012062861e+01 8.2986272743067460e+00 2.2961818234734454e-13 
-3.5050158303239435e+01 9.1471148812370675e+00 -7.9381168039756825e-13 
-3.2827112808771126e+01 9.4916128992905371e+00 -9.3134539600052341e-13 
-3.0275208604547235e+01 9.6401860716603061e+00 3.4445830224219821e-13 
-2.7443451834305268e+01 9.4049914362900005e+00 8.3127532505864763e-13 
-2.4340306555634854e+01 8.8440248989607522e+00 3.5078651734626261e-13 
-2.1129310653784088e+01 8.0794450466354171e+00 -2.0701070568088373e-12 
-1.7880287783669704e+01 7.1330822103448988e+00 -1.9955737974915069e-12 
-1.4524244192194574e+01 5.9880205788284711e+00 6.2463790737493933e-13 
-1.1302403448993118e+01 4.7561510777846507e+00 -4.0473576469044659e-13 
-8.5905840877381472e+00 3.7036675384910569e+00 -1.0653791204602082e-12 

