# vtk DataFile Version 2.0

ASCII

DATASET UNSTRUCTURED_GRID

POINTS 33 float 

-5.0000000000000003e-02  3.3333333335000000e-02  1.4999999999999997e-01
-5.0000000000000003e-02  9.9999999985000018e-02  1.4999999999999999e-01
-5.0000000000000003e-02  1.6666666665000002e-01  1.4999999999999999e-01
-5.0000000000000003e-02  2.3333333334999998e-01  1.4999999999999999e-01
-5.0000000000000003e-02  2.9999999999999993e-01  1.4999999999999997e-01
-5.0000000000000003e-02  3.6666666665000003e-01  1.4999999999999999e-01
-5.0000000000000003e-02  4.3333333335000002e-01  1.4999999999999999e-01
-5.0000000000000003e-02  5.0000000000000000e-01  1.4999999999999997e-01
-5.0000000000000003e-02  5.6666666664999987e-01  1.4999999999999999e-01
-5.0000000000000003e-02  6.3333333334999986e-01  1.4999999999999999e-01
-5.0000000000000003e-02  6.9999999999999984e-01  1.4999999999999997e-01
-5.0000000000000003e-02  7.6666666664999994e-01  1.4999999999999999e-01
-4.9999999999999996e-02  8.3333333334999982e-01  1.4999999999999999e-01
-5.0000000000000003e-02  8.9999999999999991e-01  1.4999999999999997e-01
-5.0000000000000003e-02  9.6666666664999990e-01  1.4999999999999999e-01
-3.3333333335000000e-02  9.9999999999999978e-01  1.4999999999999997e-01
0.0000000000000000e+00  1.0000000000000000e+00  1.4999999999999997e-01
3.3333333335000007e-02  1.0000000000000000e+00  1.4999999999999999e-01
5.0000000000000003e-02  3.3333333335000000e-02  1.4999999999999999e-01
5.0000000000000003e-02  9.9999999985000004e-02  1.4999999999999999e-01
5.0000000000000003e-02  1.6666666664999999e-01  1.4999999999999999e-01
5.0000000000000003e-02  2.3333333334999998e-01  1.4999999999999999e-01
5.0000000000000003e-02  2.9999999999999993e-01  1.4999999999999997e-01
5.0000000000000003e-02  3.6666666665000003e-01  1.4999999999999999e-01
5.0000000000000003e-02  4.3333333334999991e-01  1.4999999999999999e-01
5.0000000000000003e-02  5.0000000000000000e-01  1.4999999999999997e-01
5.0000000000000003e-02  5.6666666664999987e-01  1.4999999999999999e-01
5.0000000000000003e-02  6.3333333334999997e-01  1.4999999999999999e-01
5.0000000000000003e-02  6.9999999999999984e-01  1.4999999999999997e-01
5.0000000000000003e-02  7.6666666664999994e-01  1.4999999999999999e-01
5.0000000000000003e-02  8.3333333334999993e-01  1.4999999999999999e-01
5.0000000000000010e-02  8.9999999999999991e-01  1.4999999999999999e-01
5.0000000000000003e-02  9.6666666664999990e-01  1.4999999999999999e-01

CELLS 0 0


CELL_TYPES 0


POINT_DATA 33

VECTORS VertexNormals float

0.0000000000000000e+00 0.0000000000000000e+00 0.0000000000000000e+00 
0.0000000000000000e+00 0.0000000000000000e+00 0.0000000000000000e+00 
0.0000000000000000e+00 0.0000000000000000e+00 0.0000000000000000e+00 
0.0000000000000000e+00 0.0000000000000000e+00 0.0000000000000000e+00 
0.0000000000000000e+00 0.0000000000000000e+00 0.0000000000000000e+00 
0.0000000000000000e+00 0.0000000000000000e+00 0.0000000000000000e+00 
0.0000000000000000e+00 0.0000000000000000e+00 0.0000000000000000e+00 
0.0000000000000000e+00 0.0000000000000000e+00 0.0000000000000000e+00 
0.0000000000000000e+00 0.0000000000000000e+00 0.0000000000000000e+00 
0.0000000000000000e+00 0.0000000000000000e+00 0.0000000000000000e+00 
0.0000000000000000e+00 0.0000000000000000e+00 0.0000000000000000e+00 
0.0000000000000000e+00 0.0000000000000000e+00 0.0000000000000000e+00 
0.0000000000000000e+00 0.0000000000000000e+00 0.0000000000000000e+00 
0.0000000000000000e+00 0.0000000000000000e+00 0.0000000000000000e+00 
0.0000000000000000e+00 0.0000000000000000e+00 0.0000000000000000e+00 
0.0000000000000000e+00 0.0000000000000000e+00 0.0000000000000000e+00 
0.0000000000000000e+00 0.0000000000000000e+00 0.0000000000000000e+00 
0.0000000000000000e+00 0.0000000000000000e+00 0.0000000000000000e+00 
0.0000000000000000e+00 0.0000000000000000e+00 0.0000000000000000e+00 
0.0000000000000000e+00 0.0000000000000000e+00 0.0000000000000000e+00 
0.0000000000000000e+00 0.0000000000000000e+00 0.0000000000000000e+00 
0.0000000000000000e+00 0.0000000000000000e+00 0.0000000000000000e+00 
0.0000000000000000e+00 0.0000000000000000e+00 0.0000000000000000e+00 
0.0000000000000000e+00 0.0000000000000000e+00 0.0000000000000000e+00 
0.0000000000000000e+00 0.0000000000000000e+00 0.0000000000000000e+00 
0.0000000000000000e+00 0.0000000000000000e+00 0.0000000000000000e+00 
0.0000000000000000e+00 0.0000000000000000e+00 0.0000000000000000e+00 
0.0000000000000000e+00 0.0000000000000000e+00 0.0000000000000000e+00 
0.0000000000000000e+00 0.0000000000000000e+00 0.0000000000000000e+00 
0.0000000000000000e+00 0.0000000000000000e+00 0.0000000000000000e+00 
0.0000000000000000e+00 0.0000000000000000e+00 0.0000000000000000e+00 
0.0000000000000000e+00 0.0000000000000000e+00 0.0000000000000000e+00 
0.0000000000000000e+00 0.0000000000000000e+00 0.0000000000000000e+00 

VECTORS Stress float
1.3170510307772386e+02 -4.5646225182526647e+00 -4.5464642078888272e-13 
1.3170015417222248e+02 -1.0038641619940226e+01 -5.0999489135900377e-13 
1.3132151055779647e+02 -1.5448637860143585e+01 -7.3806710173405798e-13 
1.3022242631731640e+02 -1.9776060159006597e+01 -6.9035702298885100e-13 
1.2816018099838647e+02 -2.3236779060245873e+01 -1.1610964469608356e-14 
1.2513110527648729e+02 -2.5674461353562140e+01 6.1994088615068221e-13 
1.2140961886614382e+02 -2.6696299145776049e+01 2.2895433218948545e-13 
1.1697768814526972e+02 -2.6879151416149746e+01 -2.8940041653494719e-13 
1.1184593505886161e+02 -2.6215847172564310e+01 4.7655272324799418e-13 
1.0591249422699680e+02 -2.4790739475601555e+01 3.7797234913918604e-13 
9.8950120668737583e+01 -2.2956730167041183e+01 -6.7226615489864186e-13 
9.0543407617935500e+01 -2.0979978904928839e+01 -1.0474437750539529e-12 
8.0251685341984810e+01 -1.8235942351514829e+01 -3.6813855074310031e-13 
6.6452652440002140e+01 -1.4338964194158336e+01 1.5519595996302964e-13 
4.3558558893967415e+01 -9.0219102202114687e+00 1.4202625753410343e-13 
1.8209204054966563e+01 8.3618878397377941e+01 2.8541632468846989e-17 
1.3699326456422755e+01 6.3389850203421091e+01 1.3415262111389023e-19 
9.7199474888627346e+00 4.5716032463250080e+01 3.0990657746099634e-17 
8.5915612843698579e+00 -3.1676061162262653e-01 1.2653554286139768e-13 
8.3907443039270060e+00 -6.7426359641433153e-01 3.3225167013826153e-13 
8.4699575980591479e+00 -1.0246184167595940e+00 6.3863193498588508e-13 
9.0131713164807383e+00 -1.3847311496705397e+00 2.3799296332665643e-13 
1.0139608159516547e+01 -1.8424466585674131e+00 -1.9796360698836851e-13 
1.1848787360075551e+01 -2.4093810935543734e+00 2.2313203502998259e-13 
1.4127884245404903e+01 -3.0636157824777337e+00 6.5691318352038702e-13 
1.6872453245474581e+01 -3.7906730703394969e+00 8.9463056851190398e-13 
1.9840330518331456e+01 -4.5474322863200847e+00 1.5378606796992481e-13 
2.2883516682560675e+01 -5.2042748980847691e+00 -3.0948283388173997e-13 
2.5772757125318783e+01 -5.8508994042591205e+00 5.1606716585312224e-13 
2.8480931396852561e+01 -6.4522114353413222e+00 4.5374709788765572e-13 
3.0812642683655355e+01 -6.8238994962186768e+00 -1.9188071759522423e-13 
3.2376700734037691e+01 -6.8717129812733653e+00 -1.3507576329576912e-12 
3.2730412955637590e+01 -6.8104059749210606e+00 -1.2953520891617002e-12 

