# vtk DataFile Version 2.0

ASCII

DATASET UNSTRUCTURED_GRID

POINTS 33 float 

-5.0000000000000003e-02  3.3333333335000000e-02  1.4999999999999997e-01
-5.0000000000000003e-02  9.9999999985000018e-02  1.4999999999999999e-01
-5.0000000000000003e-02  1.6666666665000002e-01  1.4999999999999999e-01
-5.0000000000000003e-02  2.3333333334999998e-01  1.4999999999999999e-01
-5.0000000000000003e-02  2.9999999999999993e-01  1.4999999999999997e-01
-5.0000000000000003e-02  3.6666666665000003e-01  1.4999999999999999e-01
-5.0000000000000003e-02  4.3333333335000002e-01  1.4999999999999999e-01
-5.0000000000000003e-02  5.0000000000000000e-01  1.4999999999999997e-01
-5.0000000000000003e-02  5.6666666664999987e-01  1.4999999999999999e-01
-5.0000000000000003e-02  6.3333333334999986e-01  1.4999999999999999e-01
-5.0000000000000003e-02  6.9999999999999984e-01  1.4999999999999997e-01
-5.0000000000000003e-02  7.6666666664999994e-01  1.4999999999999999e-01
-4.9999999999999996e-02  8.3333333334999982e-01  1.4999999999999999e-01
-5.0000000000000003e-02  8.9999999999999991e-01  1.4999999999999997e-01
-5.0000000000000003e-02  9.6666666664999990e-01  1.4999999999999999e-01
-3.3333333335000000e-02  9.9999999999999978e-01  1.4999999999999997e-01
0.0000000000000000e+00  1.0000000000000000e+00  1.4999999999999997e-01
3.3333333335000007e-02  1.0000000000000000e+00  1.4999999999999999e-01
5.0000000000000003e-02  3.3333333335000000e-02  1.4999999999999999e-01
5.0000000000000003e-02  9.9999999985000004e-02  1.4999999999999999e-01
5.0000000000000003e-02  1.6666666664999999e-01  1.4999999999999999e-01
5.0000000000000003e-02  2.3333333334999998e-01  1.4999999999999999e-01
5.0000000000000003e-02  2.9999999999999993e-01  1.4999999999999997e-01
5.0000000000000003e-02  3.6666666665000003e-01  1.4999999999999999e-01
5.0000000000000003e-02  4.3333333334999991e-01  1.4999999999999999e-01
5.0000000000000003e-02  5.0000000000000000e-01  1.4999999999999997e-01
5.0000000000000003e-02  5.6666666664999987e-01  1.4999999999999999e-01
5.0000000000000003e-02  6.3333333334999997e-01  1.4999999999999999e-01
5.0000000000000003e-02  6.9999999999999984e-01  1.4999999999999997e-01
5.0000000000000003e-02  7.6666666664999994e-01  1.4999999999999999e-01
5.0000000000000003e-02  8.3333333334999993e-01  1.4999999999999999e-01
5.0000000000000010e-02  8.9999999999999991e-01  1.4999999999999999e-01
5.0000000000000003e-02  9.6666666664999990e-01  1.4999999999999999e-01

CELLS 0 0


CELL_TYPES 0


POINT_DATA 33

VECTORS VertexNormals float

0.0000000000000000e+00 0.0000000000000000e+00 0.0000000000000000e+00 
0.0000000000000000e+00 0.0000000000000000e+00 0.0000000000000000e+00 
0.0000000000000000e+00 0.0000000000000000e+00 0.0000000000000000e+00 
0.0000000000000000e+00 0.0000000000000000e+00 0.0000000000000000e+00 
0.0000000000000000e+00 0.0000000000000000e+00 0.0000000000000000e+00 
0.0000000000000000e+00 0.0000000000000000e+00 0.0000000000000000e+00 
0.0000000000000000e+00 0.0000000000000000e+00 0.0000000000000000e+00 
0.0000000000000000e+00 0.0000000000000000e+00 0.0000000000000000e+00 
0.0000000000000000e+00 0.0000000000000000e+00 0.0000000000000000e+00 
0.0000000000000000e+00 0.0000000000000000e+00 0.0000000000000000e+00 
0.0000000000000000e+00 0.0000000000000000e+00 0.0000000000000000e+00 
0.0000000000000000e+00 0.0000000000000000e+00 0.0000000000000000e+00 
0.0000000000000000e+00 0.0000000000000000e+00 0.0000000000000000e+00 
0.0000000000000000e+00 0.0000000000000000e+00 0.0000000000000000e+00 
0.0000000000000000e+00 0.0000000000000000e+00 0.0000000000000000e+00 
0.0000000000000000e+00 0.0000000000000000e+00 0.0000000000000000e+00 
0.0000000000000000e+00 0.0000000000000000e+00 0.0000000000000000e+00 
0.0000000000000000e+00 0.0000000000000000e+00 0.0000000000000000e+00 
0.0000000000000000e+00 0.0000000000000000e+00 0.0000000000000000e+00 
0.0000000000000000e+00 0.0000000000000000e+00 0.0000000000000000e+00 
0.0000000000000000e+00 0.0000000000000000e+00 0.0000000000000000e+00 
0.0000000000000000e+00 0.0000000000000000e+00 0.0000000000000000e+00 
0.0000000000000000e+00 0.0000000000000000e+00 0.0000000000000000e+00 
0.0000000000000000e+00 0.0000000000000000e+00 0.0000000000000000e+00 
0.0000000000000000e+00 0.0000000000000000e+00 0.0000000000000000e+00 
0.0000000000000000e+00 0.0000000000000000e+00 0.0000000000000000e+00 
0.0000000000000000e+00 0.0000000000000000e+00 0.0000000000000000e+00 
0.0000000000000000e+00 0.0000000000000000e+00 0.0000000000000000e+00 
0.0000000000000000e+00 0.0000000000000000e+00 0.0000000000000000e+00 
0.0000000000000000e+00 0.0000000000000000e+00 0.0000000000000000e+00 
0.0000000000000000e+00 0.0000000000000000e+00 0.0000000000000000e+00 
0.0000000000000000e+00 0.0000000000000000e+00 0.0000000000000000e+00 
0.0000000000000000e+00 0.0000000000000000e+00 0.0000000000000000e+00 

VECTORS Stress float
2.1525666694078603e+02 -1.0264096613541602e+01 2.4560003196194573e-12 
2.1421093468394957e+02 -2.5223966738723576e+01 3.4351734183674023e-12 
2.1173518149511051e+02 -3.9644412884800197e+01 1.4055411571788448e-12 
2.0717685012120791e+02 -5.2322758108428779e+01 -1.0305987163679950e-12 
2.0055777070423736e+02 -6.3519755608101939e+01 -1.4462013803600615e-12 
1.9291672245492830e+02 -7.1881811129511135e+01 -4.1025921271467673e-12 
1.8492968038566872e+02 -7.7704054221701711e+01 -5.1513253783719377e-12 
1.7714345169485296e+02 -8.1227648969645784e+01 3.7701817017777068e-13 
1.6943459497147262e+02 -8.3189645328374851e+01 3.2138676137488042e-12 
1.6201148498983000e+02 -8.3410721710479834e+01 1.7746557315741556e-12 
1.5476507696470500e+02 -8.2329789215083920e+01 5.1741102329510826e-13 
1.4766426669421361e+02 -7.9931307330339848e+01 -2.1878300991117921e-13 
1.4018782543860399e+02 -7.5999504472410337e+01 -3.6238263192950724e-13 
1.3113114711092720e+02 -7.0057109680469779e+01 1.6854498558700783e-12 
1.1716265068619190e+02 -6.1787314282313098e+01 1.2319559120460030e-12 
-1.2509362655597720e+01 -2.3796296884792024e+01 3.3141796356784851e-19 
-2.4239643523780359e+01 -4.5484112458804063e+01 -8.8300902912362208e-17 
-3.2230849646012011e+01 -6.0482309934599812e+01 8.2261149488529134e-17 
-9.4873951700297567e+01 5.1740159347959391e+00 -1.7347136148703976e-12 
-9.4325852432207625e+01 1.2442363624826536e+01 -2.3554958909724705e-12 
-9.3448942444741178e+01 1.9471152649969667e+01 -5.8779650942555221e-13 
-9.2418676609827173e+01 2.5837546865131397e+01 1.3447602720787844e-12 
-9.1139743568449333e+01 3.1659369366145828e+01 1.3309385229623544e-12 
-8.9904324587319593e+01 3.6295037450337851e+01 4.0730695739293850e-12 
-8.8746166779008220e+01 3.9834872353527359e+01 5.3163480167130519e-12 
-8.7570828494771590e+01 4.2462946964994849e+01 5.9140850136080146e-14 
-8.6330876600568359e+01 4.4246024812139140e+01 -2.8557213022644504e-12 
-8.4984056583660035e+01 4.5257598638905165e+01 -1.7025672075031117e-12 
-8.3402326742625576e+01 4.5374218427326177e+01 -4.8926838415381569e-13 
-8.1493289315663304e+01 4.4635647301477519e+01 -2.3897439394821210e-13 
-7.9426298393644245e+01 4.3175788818355812e+01 5.5272706354849901e-13 
-7.7347628591366174e+01 4.1393093256247667e+01 1.2846053183943401e-13 
-7.5290975892283285e+01 4.0088460076615377e+01 -2.0451193314209276e-13 

