# vtk DataFile Version 2.0

ASCII

DATASET UNSTRUCTURED_GRID

POINTS 33 float 

-5.0000000000000003e-02  3.3333333335000000e-02  1.4999999999999997e-01
-5.0000000000000003e-02  9.9999999985000018e-02  1.4999999999999999e-01
-5.0000000000000003e-02  1.6666666665000002e-01  1.4999999999999999e-01
-5.0000000000000003e-02  2.3333333334999998e-01  1.4999999999999999e-01
-5.0000000000000003e-02  2.9999999999999993e-01  1.4999999999999997e-01
-5.0000000000000003e-02  3.6666666665000003e-01  1.4999999999999999e-01
-5.0000000000000003e-02  4.3333333335000002e-01  1.4999999999999999e-01
-5.0000000000000003e-02  5.0000000000000000e-01  1.4999999999999997e-01
-5.0000000000000003e-02  5.6666666664999987e-01  1.4999999999999999e-01
-5.0000000000000003e-02  6.3333333334999986e-01  1.4999999999999999e-01
-5.0000000000000003e-02  6.9999999999999984e-01  1.4999999999999997e-01
-5.0000000000000003e-02  7.6666666664999994e-01  1.4999999999999999e-01
-4.9999999999999996e-02  8.3333333334999982e-01  1.4999999999999999e-01
-5.0000000000000003e-02  8.9999999999999991e-01  1.4999999999999997e-01
-5.0000000000000003e-02  9.6666666664999990e-01  1.4999999999999999e-01
-3.3333333335000000e-02  9.9999999999999978e-01  1.4999999999999997e-01
0.0000000000000000e+00  1.0000000000000000e+00  1.4999999999999997e-01
3.3333333335000007e-02  1.0000000000000000e+00  1.4999999999999999e-01
5.0000000000000003e-02  3.3333333335000000e-02  1.4999999999999999e-01
5.0000000000000003e-02  9.9999999985000004e-02  1.4999999999999999e-01
5.0000000000000003e-02  1.6666666664999999e-01  1.4999999999999999e-01
5.0000000000000003e-02  2.3333333334999998e-01  1.4999999999999999e-01
5.0000000000000003e-02  2.9999999999999993e-01  1.4999999999999997e-01
5.0000000000000003e-02  3.6666666665000003e-01  1.4999999999999999e-01
5.0000000000000003e-02  4.3333333334999991e-01  1.4999999999999999e-01
5.0000000000000003e-02  5.0000000000000000e-01  1.4999999999999997e-01
5.0000000000000003e-02  5.6666666664999987e-01  1.4999999999999999e-01
5.0000000000000003e-02  6.3333333334999997e-01  1.4999999999999999e-01
5.0000000000000003e-02  6.9999999999999984e-01  1.4999999999999997e-01
5.0000000000000003e-02  7.6666666664999994e-01  1.4999999999999999e-01
5.0000000000000003e-02  8.3333333334999993e-01  1.4999999999999999e-01
5.0000000000000010e-02  8.9999999999999991e-01  1.4999999999999999e-01
5.0000000000000003e-02  9.6666666664999990e-01  1.4999999999999999e-01

CELLS 0 0


CELL_TYPES 0


POINT_DATA 33

VECTORS VertexNormals float

0.0000000000000000e+00 0.0000000000000000e+00 0.0000000000000000e+00 
0.0000000000000000e+00 0.0000000000000000e+00 0.0000000000000000e+00 
0.0000000000000000e+00 0.0000000000000000e+00 0.0000000000000000e+00 
0.0000000000000000e+00 0.0000000000000000e+00 0.0000000000000000e+00 
0.0000000000000000e+00 0.0000000000000000e+00 0.0000000000000000e+00 
0.0000000000000000e+00 0.0000000000000000e+00 0.0000000000000000e+00 
0.0000000000000000e+00 0.0000000000000000e+00 0.0000000000000000e+00 
0.0000000000000000e+00 0.0000000000000000e+00 0.0000000000000000e+00 
0.0000000000000000e+00 0.0000000000000000e+00 0.0000000000000000e+00 
0.0000000000000000e+00 0.0000000000000000e+00 0.0000000000000000e+00 
0.0000000000000000e+00 0.0000000000000000e+00 0.0000000000000000e+00 
0.0000000000000000e+00 0.0000000000000000e+00 0.0000000000000000e+00 
0.0000000000000000e+00 0.0000000000000000e+00 0.0000000000000000e+00 
0.0000000000000000e+00 0.0000000000000000e+00 0.0000000000000000e+00 
0.0000000000000000e+00 0.0000000000000000e+00 0.0000000000000000e+00 
0.0000000000000000e+00 0.0000000000000000e+00 0.0000000000000000e+00 
0.0000000000000000e+00 0.0000000000000000e+00 0.0000000000000000e+00 
0.0000000000000000e+00 0.0000000000000000e+00 0.0000000000000000e+00 
0.0000000000000000e+00 0.0000000000000000e+00 0.0000000000000000e+00 
0.0000000000000000e+00 0.0000000000000000e+00 0.0000000000000000e+00 
0.0000000000000000e+00 0.0000000000000000e+00 0.0000000000000000e+00 
0.0000000000000000e+00 0.0000000000000000e+00 0.0000000000000000e+00 
0.0000000000000000e+00 0.0000000000000000e+00 0.0000000000000000e+00 
0.0000000000000000e+00 0.0000000000000000e+00 0.0000000000000000e+00 
0.0000000000000000e+00 0.0000000000000000e+00 0.0000000000000000e+00 
0.0000000000000000e+00 0.0000000000000000e+00 0.0000000000000000e+00 
0.0000000000000000e+00 0.0000000000000000e+00 0.0000000000000000e+00 
0.0000000000000000e+00 0.0000000000000000e+00 0.0000000000000000e+00 
0.0000000000000000e+00 0.0000000000000000e+00 0.0000000000000000e+00 
0.0000000000000000e+00 0.0000000000000000e+00 0.0000000000000000e+00 
0.0000000000000000e+00 0.0000000000000000e+00 0.0000000000000000e+00 
0.0000000000000000e+00 0.0000000000000000e+00 0.0000000000000000e+00 
0.0000000000000000e+00 0.0000000000000000e+00 0.0000000000000000e+00 

VECTORS Stress float
1.9236668415915784e+02 -7.6528405346086181e+00 5.7064980325874071e-13 
1.9185224228111642e+02 -1.8447966735579694e+01 1.9931280823216700e-13 
1.9047728281706370e+02 -2.9072884646400198e+01 -5.5763343752570175e-13 
1.8757606946751037e+02 -3.8201052610450915e+01 1.2866229520726948e-13 
1.8285928946573466e+02 -4.6355805990764246e+01 3.1705843322460060e-13 
1.7662329021481850e+02 -5.2972732120760682e+01 -2.5111440853178463e-13 
1.6948059169179234e+02 -5.7810505732767268e+01 -1.7092677832453813e-13 
1.6182586156221754e+02 -6.1186441235418748e+01 1.4242031035792805e-13 
1.5338539469459687e+02 -6.4160149896482665e+01 3.1901958333091758e-13 
1.4464366472701499e+02 -6.5981453678971690e+01 2.5478488758260643e-13 
1.3603967096083221e+02 -6.6030477972178204e+01 -1.1348538373557046e-12 
1.2749677059901444e+02 -6.4346561924051883e+01 -1.5656151588342738e-12 
1.1861008880509978e+02 -6.0925272311691643e+01 8.4410905168820271e-14 
1.0815974285494056e+02 -5.5696116823815451e+01 4.6938793013615213e-13 
9.3298401382956413e+01 -4.8080535700552289e+01 -3.7815293177584434e-14 
5.0553261643751313e-01 7.8721700767173330e-01 -9.8226589563349705e-17 
-1.0682141337692237e+01 -2.0366109636574929e+01 5.6145443969846307e-17 
-1.8242070999882657e+01 -3.4729377670829436e+01 8.2308037757241054e-17 
-8.1757749259173409e+01 3.4951616779825638e+00 6.3136816105140582e-13 
-8.1726565954986057e+01 8.6318359662135666e+00 8.2462543330670622e-13 
-8.1443942006580500e+01 1.3557555540395924e+01 -2.3105885198777718e-14 
-8.0920768570881933e+01 1.7918687401313150e+01 -1.1119411130280640e-12 
-8.0077046298944580e+01 2.1926102794730959e+01 -9.0047633891998257e-13 
-7.8912439034034534e+01 2.5475963361646848e+01 -9.5261175872637895e-14 
-7.7418207519121466e+01 2.8190973312819821e+01 3.3419589932232182e-13 
-7.5386344801321528e+01 3.0471860057927650e+01 7.9571542001267712e-13 
-7.2725552710561061e+01 3.2413854040568779e+01 4.6151516408852703e-13 
-6.9621581476153324e+01 3.3599026357402664e+01 9.5588055935743451e-14 
-6.6323363261515681e+01 3.3561603044631141e+01 -8.3763874416647563e-14 
-6.2802786104515249e+01 3.2642301538814380e+01 1.4726190155211486e-13 
-5.9117474792643030e+01 3.0995471743082074e+01 -3.7387136281794263e-13 
-5.5416718350566647e+01 2.9041926484316946e+01 -6.3239571822955452e-13 
-5.2066780726628139e+01 2.7404082090185906e+01 2.8737640161077170e-15 

