# vtk DataFile Version 2.0

ASCII

DATASET UNSTRUCTURED_GRID

POINTS 33 float 

-5.0000000000000003e-02  3.3333333335000000e-02  1.4999999999999997e-01
-5.0000000000000003e-02  9.9999999985000018e-02  1.4999999999999999e-01
-5.0000000000000003e-02  1.6666666665000002e-01  1.4999999999999999e-01
-5.0000000000000003e-02  2.3333333334999998e-01  1.4999999999999999e-01
-5.0000000000000003e-02  2.9999999999999993e-01  1.4999999999999997e-01
-5.0000000000000003e-02  3.6666666665000003e-01  1.4999999999999999e-01
-5.0000000000000003e-02  4.3333333335000002e-01  1.4999999999999999e-01
-5.0000000000000003e-02  5.0000000000000000e-01  1.4999999999999997e-01
-5.0000000000000003e-02  5.6666666664999987e-01  1.4999999999999999e-01
-5.0000000000000003e-02  6.3333333334999986e-01  1.4999999999999999e-01
-5.0000000000000003e-02  6.9999999999999984e-01  1.4999999999999997e-01
-5.0000000000000003e-02  7.6666666664999994e-01  1.4999999999999999e-01
-4.9999999999999996e-02  8.3333333334999982e-01  1.4999999999999999e-01
-5.0000000000000003e-02  8.9999999999999991e-01  1.4999999999999997e-01
-5.0000000000000003e-02  9.6666666664999990e-01  1.4999999999999999e-01
-3.3333333335000000e-02  9.9999999999999978e-01  1.4999999999999997e-01
0.0000000000000000e+00  1.0000000000000000e+00  1.4999999999999997e-01
3.3333333335000007e-02  1.0000000000000000e+00  1.4999999999999999e-01
5.0000000000000003e-02  3.3333333335000000e-02  1.4999999999999999e-01
5.0000000000000003e-02  9.9999999985000004e-02  1.4999999999999999e-01
5.0000000000000003e-02  1.6666666664999999e-01  1.4999999999999999e-01
5.0000000000000003e-02  2.3333333334999998e-01  1.4999999999999999e-01
5.0000000000000003e-02  2.9999999999999993e-01  1.4999999999999997e-01
5.0000000000000003e-02  3.6666666665000003e-01  1.4999999999999999e-01
5.0000000000000003e-02  4.3333333334999991e-01  1.4999999999999999e-01
5.0000000000000003e-02  5.0000000000000000e-01  1.4999999999999997e-01
5.0000000000000003e-02  5.6666666664999987e-01  1.4999999999999999e-01
5.0000000000000003e-02  6.3333333334999997e-01  1.4999999999999999e-01
5.0000000000000003e-02  6.9999999999999984e-01  1.4999999999999997e-01
5.0000000000000003e-02  7.6666666664999994e-01  1.4999999999999999e-01
5.0000000000000003e-02  8.3333333334999993e-01  1.4999999999999999e-01
5.0000000000000010e-02  8.9999999999999991e-01  1.4999999999999999e-01
5.0000000000000003e-02  9.6666666664999990e-01  1.4999999999999999e-01

CELLS 0 0


CELL_TYPES 0


POINT_DATA 33

VECTORS VertexNormals float

0.0000000000000000e+00 0.0000000000000000e+00 0.0000000000000000e+00 
0.0000000000000000e+00 0.0000000000000000e+00 0.0000000000000000e+00 
0.0000000000000000e+00 0.0000000000000000e+00 0.0000000000000000e+00 
0.0000000000000000e+00 0.0000000000000000e+00 0.0000000000000000e+00 
0.0000000000000000e+00 0.0000000000000000e+00 0.0000000000000000e+00 
0.0000000000000000e+00 0.0000000000000000e+00 0.0000000000000000e+00 
0.0000000000000000e+00 0.0000000000000000e+00 0.0000000000000000e+00 
0.0000000000000000e+00 0.0000000000000000e+00 0.0000000000000000e+00 
0.0000000000000000e+00 0.0000000000000000e+00 0.0000000000000000e+00 
0.0000000000000000e+00 0.0000000000000000e+00 0.0000000000000000e+00 
0.0000000000000000e+00 0.0000000000000000e+00 0.0000000000000000e+00 
0.0000000000000000e+00 0.0000000000000000e+00 0.0000000000000000e+00 
0.0000000000000000e+00 0.0000000000000000e+00 0.0000000000000000e+00 
0.0000000000000000e+00 0.0000000000000000e+00 0.0000000000000000e+00 
0.0000000000000000e+00 0.0000000000000000e+00 0.0000000000000000e+00 
0.0000000000000000e+00 0.0000000000000000e+00 0.0000000000000000e+00 
0.0000000000000000e+00 0.0000000000000000e+00 0.0000000000000000e+00 
0.0000000000000000e+00 0.0000000000000000e+00 0.0000000000000000e+00 
0.0000000000000000e+00 0.0000000000000000e+00 0.0000000000000000e+00 
0.0000000000000000e+00 0.0000000000000000e+00 0.0000000000000000e+00 
0.0000000000000000e+00 0.0000000000000000e+00 0.0000000000000000e+00 
0.0000000000000000e+00 0.0000000000000000e+00 0.0000000000000000e+00 
0.0000000000000000e+00 0.0000000000000000e+00 0.0000000000000000e+00 
0.0000000000000000e+00 0.0000000000000000e+00 0.0000000000000000e+00 
0.0000000000000000e+00 0.0000000000000000e+00 0.0000000000000000e+00 
0.0000000000000000e+00 0.0000000000000000e+00 0.0000000000000000e+00 
0.0000000000000000e+00 0.0000000000000000e+00 0.0000000000000000e+00 
0.0000000000000000e+00 0.0000000000000000e+00 0.0000000000000000e+00 
0.0000000000000000e+00 0.0000000000000000e+00 0.0000000000000000e+00 
0.0000000000000000e+00 0.0000000000000000e+00 0.0000000000000000e+00 
0.0000000000000000e+00 0.0000000000000000e+00 0.0000000000000000e+00 
0.0000000000000000e+00 0.0000000000000000e+00 0.0000000000000000e+00 
0.0000000000000000e+00 0.0000000000000000e+00 0.0000000000000000e+00 

VECTORS Stress float
1.1108721084607932e+02 -2.8641512449309987e+00 1.3042903135915337e-14 
1.1105350606934628e+02 -5.3963055077122659e+00 -3.9145543944139645e-14 
1.1060697836320905e+02 -7.0127956487302825e+00 -1.2615901238327098e-13 
1.0974424307083306e+02 -7.6854203369577982e+00 1.5290042511881068e-13 
1.0853037092238539e+02 -7.4106992679111858e+00 2.2584972484261953e-13 
1.0697386110967652e+02 -6.4832322532956015e+00 -5.6256357137742321e-13 
1.0506748375078941e+02 -4.9854195734771469e+00 -9.1496286765215201e-13 
1.0268373197979031e+02 -3.2482997794965160e+00 -2.0516061865407447e-13 
9.9688811812254855e+01 -1.4350719812363679e+00 5.1145906660485389e-13 
9.5755370863156472e+01 1.1302445148906759e-01 3.6371763963061535e-13 
9.0523250915388573e+01 1.3854957585021475e+00 -3.4882767618147828e-13 
8.3246710055744671e+01 1.9149042943320029e+00 -3.5003657356011628e-13 
7.2671933509160539e+01 2.1930928889948946e+00 2.3455875785142828e-13 
5.5759427529329592e+01 2.2462595718584040e+00 4.0811153875784393e-13 
2.2455266705024883e+01 1.2462550223482280e+00 1.7402545644868149e-13 
-6.0363720719221563e+00 1.7348547345415702e+02 1.0894731584098774e-16 
-5.3920233223521263e+00 1.5336906119088562e+02 1.3454214363069472e-16 
-4.5160905906391529e+00 1.2304502646593542e+02 -2.4625759178840679e-20 
9.2596936821587178e+01 -2.4918196559291674e+00 5.5713734328888666e-13 
9.2497318056235272e+01 -4.6040199066711196e+00 6.4900347877534445e-13 
9.2798987803531318e+01 -5.9986097965977105e+00 1.6046420147221093e-13 
9.3696770226412852e+01 -6.5638666521171993e+00 -2.2068148836367445e-13 
9.5321028582227854e+01 -6.4661848171909977e+00 -2.9503354796085685e-13 
9.7756100678153274e+01 -5.8095157686963201e+00 5.2986382758934705e-13 
1.0100250221966516e+02 -4.6606084872705109e+00 7.0092342433599416e-13 
1.0481221126362007e+02 -3.2085232013286511e+00 4.8246104604064360e-14 
1.0878641423110322e+02 -1.5025647033521357e+00 -2.4140912990455901e-13 
1.1223336184309184e+02 1.4264958953594081e-01 -1.1934174108068781e-13 
1.1457125255434404e+02 1.6967060063902608e+00 3.1707250762583902e-13 
1.1522265562725420e+02 2.5128775156924412e+00 2.7012364823245912e-13 
1.1403912579965416e+02 3.1558819531000450e+00 -1.4747612601907561e-13 
1.1096522469841973e+02 3.9815613010794917e+00 -3.8654189222279515e-13 
1.0576647746612520e+02 4.0707631881614210e+00 -2.8273218871882332e-13 

