# vtk DataFile Version 2.0

ASCII

DATASET UNSTRUCTURED_GRID

POINTS 33 float 

-5.0000000000000003e-02  3.3333333335000000e-02  1.4999999999999997e-01
-5.0000000000000003e-02  9.9999999985000018e-02  1.4999999999999999e-01
-5.0000000000000003e-02  1.6666666665000002e-01  1.4999999999999999e-01
-5.0000000000000003e-02  2.3333333334999998e-01  1.4999999999999999e-01
-5.0000000000000003e-02  2.9999999999999993e-01  1.4999999999999997e-01
-5.0000000000000003e-02  3.6666666665000003e-01  1.4999999999999999e-01
-5.0000000000000003e-02  4.3333333335000002e-01  1.4999999999999999e-01
-5.0000000000000003e-02  5.0000000000000000e-01  1.4999999999999997e-01
-5.0000000000000003e-02  5.6666666664999987e-01  1.4999999999999999e-01
-5.0000000000000003e-02  6.3333333334999986e-01  1.4999999999999999e-01
-5.0000000000000003e-02  6.9999999999999984e-01  1.4999999999999997e-01
-5.0000000000000003e-02  7.6666666664999994e-01  1.4999999999999999e-01
-4.9999999999999996e-02  8.3333333334999982e-01  1.4999999999999999e-01
-5.0000000000000003e-02  8.9999999999999991e-01  1.4999999999999997e-01
-5.0000000000000003e-02  9.6666666664999990e-01  1.4999999999999999e-01
-3.3333333335000000e-02  9.9999999999999978e-01  1.4999999999999997e-01
0.0000000000000000e+00  1.0000000000000000e+00  1.4999999999999997e-01
3.3333333335000007e-02  1.0000000000000000e+00  1.4999999999999999e-01
5.0000000000000003e-02  3.3333333335000000e-02  1.4999999999999999e-01
5.0000000000000003e-02  9.9999999985000004e-02  1.4999999999999999e-01
5.0000000000000003e-02  1.6666666664999999e-01  1.4999999999999999e-01
5.0000000000000003e-02  2.3333333334999998e-01  1.4999999999999999e-01
5.0000000000000003e-02  2.9999999999999993e-01  1.4999999999999997e-01
5.0000000000000003e-02  3.6666666665000003e-01  1.4999999999999999e-01
5.0000000000000003e-02  4.3333333334999991e-01  1.4999999999999999e-01
5.0000000000000003e-02  5.0000000000000000e-01  1.4999999999999997e-01
5.0000000000000003e-02  5.6666666664999987e-01  1.4999999999999999e-01
5.0000000000000003e-02  6.3333333334999997e-01  1.4999999999999999e-01
5.0000000000000003e-02  6.9999999999999984e-01  1.4999999999999997e-01
5.0000000000000003e-02  7.6666666664999994e-01  1.4999999999999999e-01
5.0000000000000003e-02  8.3333333334999993e-01  1.4999999999999999e-01
5.0000000000000010e-02  8.9999999999999991e-01  1.4999999999999999e-01
5.0000000000000003e-02  9.6666666664999990e-01  1.4999999999999999e-01

CELLS 0 0


CELL_TYPES 0


POINT_DATA 33

VECTORS VertexNormals float

0.0000000000000000e+00 0.0000000000000000e+00 0.0000000000000000e+00 
0.0000000000000000e+00 0.0000000000000000e+00 0.0000000000000000e+00 
0.0000000000000000e+00 0.0000000000000000e+00 0.0000000000000000e+00 
0.0000000000000000e+00 0.0000000000000000e+00 0.0000000000000000e+00 
0.0000000000000000e+00 0.0000000000000000e+00 0.0000000000000000e+00 
0.0000000000000000e+00 0.0000000000000000e+00 0.0000000000000000e+00 
0.0000000000000000e+00 0.0000000000000000e+00 0.0000000000000000e+00 
0.0000000000000000e+00 0.0000000000000000e+00 0.0000000000000000e+00 
0.0000000000000000e+00 0.0000000000000000e+00 0.0000000000000000e+00 
0.0000000000000000e+00 0.0000000000000000e+00 0.0000000000000000e+00 
0.0000000000000000e+00 0.0000000000000000e+00 0.0000000000000000e+00 
0.0000000000000000e+00 0.0000000000000000e+00 0.0000000000000000e+00 
0.0000000000000000e+00 0.0000000000000000e+00 0.0000000000000000e+00 
0.0000000000000000e+00 0.0000000000000000e+00 0.0000000000000000e+00 
0.0000000000000000e+00 0.0000000000000000e+00 0.0000000000000000e+00 
0.0000000000000000e+00 0.0000000000000000e+00 0.0000000000000000e+00 
0.0000000000000000e+00 0.0000000000000000e+00 0.0000000000000000e+00 
0.0000000000000000e+00 0.0000000000000000e+00 0.0000000000000000e+00 
0.0000000000000000e+00 0.0000000000000000e+00 0.0000000000000000e+00 
0.0000000000000000e+00 0.0000000000000000e+00 0.0000000000000000e+00 
0.0000000000000000e+00 0.0000000000000000e+00 0.0000000000000000e+00 
0.0000000000000000e+00 0.0000000000000000e+00 0.0000000000000000e+00 
0.0000000000000000e+00 0.0000000000000000e+00 0.0000000000000000e+00 
0.0000000000000000e+00 0.0000000000000000e+00 0.0000000000000000e+00 
0.0000000000000000e+00 0.0000000000000000e+00 0.0000000000000000e+00 
0.0000000000000000e+00 0.0000000000000000e+00 0.0000000000000000e+00 
0.0000000000000000e+00 0.0000000000000000e+00 0.0000000000000000e+00 
0.0000000000000000e+00 0.0000000000000000e+00 0.0000000000000000e+00 
0.0000000000000000e+00 0.0000000000000000e+00 0.0000000000000000e+00 
0.0000000000000000e+00 0.0000000000000000e+00 0.0000000000000000e+00 
0.0000000000000000e+00 0.0000000000000000e+00 0.0000000000000000e+00 
0.0000000000000000e+00 0.0000000000000000e+00 0.0000000000000000e+00 
0.0000000000000000e+00 0.0000000000000000e+00 0.0000000000000000e+00 

VECTORS Stress float
2.1246095656851170e+02 -9.7337735310753306e+00 9.1581615156398652e-13 
2.1148358395241357e+02 -2.4014646132100243e+01 1.2380647758129774e-12 
2.0915176088209111e+02 -3.7940117347300344e+01 -1.6699469938115530e-14 
2.0471293220356100e+02 -5.0608764963355135e+01 -9.1318448666262838e-13 
1.9825879436092748e+02 -6.1540757106304909e+01 -5.7057794982090541e-13 
1.9059918412647983e+02 -7.0013624789782924e+01 2.5453125187748932e-12 
1.8267553812638812e+02 -7.5770270729036554e+01 2.7302469321205414e-12 
1.7465411671413145e+02 -7.9708410325992617e+01 -1.1126057316049699e-12 
1.6708160989901245e+02 -8.1461277952536207e+01 -2.3867520253505594e-12 
1.5998838832189153e+02 -8.1307054194208305e+01 -1.0810882905585223e-12 
1.5275759888471381e+02 -8.0146957044666138e+01 4.4451779620147152e-13 
1.4514561522149577e+02 -7.8089451787232264e+01 5.1573146300188911e-13 
1.3731895157883352e+02 -7.4347245724202054e+01 -1.2231070817893869e-12 
1.2809249032895249e+02 -6.8757734931867091e+01 -2.2814961858416710e-12 
1.1452995375969971e+02 -6.0622607998040927e+01 -9.3114840470791139e-13 
-1.1423910203593831e+01 -2.1673293014852888e+01 -1.5791815146458217e-16 
-2.3193199516389143e+01 -4.3411277098578985e+01 -3.2938684395045158e-20 
-3.1171955178456180e+01 -5.8279693298801675e+01 1.8517960235964954e-19 
-9.4415240400151404e+01 4.8762370715974299e+00 1.1554687421785531e-12 
-9.3954832421960987e+01 1.1975737957135152e+01 8.4928204016514297e-13 
-9.3201087228582466e+01 1.8795178308990391e+01 -3.0978783049535247e-15 
-9.2172249964502299e+01 2.5232326251009880e+01 9.1230591115963827e-13 
-9.0934130531231915e+01 3.1023288990042342e+01 6.0387680252541504e-13 
-8.9679149089843790e+01 3.5676460804380298e+01 -1.4984805527702226e-12 
-8.8395222479388480e+01 3.9306099059069780e+01 -1.5956310959063172e-12 
-8.7058550571548011e+01 4.1960522481691811e+01 4.6195498012887978e-13 
-8.5710413772566085e+01 4.3580330170313772e+01 1.0281240893401174e-12 
-8.4306678604926418e+01 4.4181589677618987e+01 4.8029690534427572e-13 
-8.2466668445379057e+01 4.4442623545804082e+01 8.2952920245340734e-13 
-8.0325310803916835e+01 4.3925475897257570e+01 1.1868864413565042e-12 
-7.8008785083208195e+01 4.2500444931993179e+01 1.4240025284887128e-12 
-7.5564744399141546e+01 4.0706664129867235e+01 1.1346268631272676e-12 
-7.3216410527503427e+01 3.9134083565732631e+01 2.4962397661413414e-14 

