# vtk DataFile Version 2.0

ASCII

DATASET UNSTRUCTURED_GRID

POINTS 33 float 

-5.0000000000000003e-02  3.3333333335000000e-02  1.4999999999999997e-01
-5.0000000000000003e-02  9.9999999985000018e-02  1.4999999999999999e-01
-5.0000000000000003e-02  1.6666666665000002e-01  1.4999999999999999e-01
-5.0000000000000003e-02  2.3333333334999998e-01  1.4999999999999999e-01
-5.0000000000000003e-02  2.9999999999999993e-01  1.4999999999999997e-01
-5.0000000000000003e-02  3.6666666665000003e-01  1.4999999999999999e-01
-5.0000000000000003e-02  4.3333333335000002e-01  1.4999999999999999e-01
-5.0000000000000003e-02  5.0000000000000000e-01  1.4999999999999997e-01
-5.0000000000000003e-02  5.6666666664999987e-01  1.4999999999999999e-01
-5.0000000000000003e-02  6.3333333334999986e-01  1.4999999999999999e-01
-5.0000000000000003e-02  6.9999999999999984e-01  1.4999999999999997e-01
-5.0000000000000003e-02  7.6666666664999994e-01  1.4999999999999999e-01
-4.9999999999999996e-02  8.3333333334999982e-01  1.4999999999999999e-01
-5.0000000000000003e-02  8.9999999999999991e-01  1.4999999999999997e-01
-5.0000000000000003e-02  9.6666666664999990e-01  1.4999999999999999e-01
-3.3333333335000000e-02  9.9999999999999978e-01  1.4999999999999997e-01
0.0000000000000000e+00  1.0000000000000000e+00  1.4999999999999997e-01
3.3333333335000007e-02  1.0000000000000000e+00  1.4999999999999999e-01
5.0000000000000003e-02  3.3333333335000000e-02  1.4999999999999999e-01
5.0000000000000003e-02  9.9999999985000004e-02  1.4999999999999999e-01
5.0000000000000003e-02  1.6666666664999999e-01  1.4999999999999999e-01
5.0000000000000003e-02  2.3333333334999998e-01  1.4999999999999999e-01
5.0000000000000003e-02  2.9999999999999993e-01  1.4999999999999997e-01
5.0000000000000003e-02  3.6666666665000003e-01  1.4999999999999999e-01
5.0000000000000003e-02  4.3333333334999991e-01  1.4999999999999999e-01
5.0000000000000003e-02  5.0000000000000000e-01  1.4999999999999997e-01
5.0000000000000003e-02  5.6666666664999987e-01  1.4999999999999999e-01
5.0000000000000003e-02  6.3333333334999997e-01  1.4999999999999999e-01
5.0000000000000003e-02  6.9999999999999984e-01  1.4999999999999997e-01
5.0000000000000003e-02  7.6666666664999994e-01  1.4999999999999999e-01
5.0000000000000003e-02  8.3333333334999993e-01  1.4999999999999999e-01
5.0000000000000010e-02  8.9999999999999991e-01  1.4999999999999999e-01
5.0000000000000003e-02  9.6666666664999990e-01  1.4999999999999999e-01

CELLS 0 0


CELL_TYPES 0


POINT_DATA 33

VECTORS VertexNormals float

0.0000000000000000e+00 0.0000000000000000e+00 0.0000000000000000e+00 
0.0000000000000000e+00 0.0000000000000000e+00 0.0000000000000000e+00 
0.0000000000000000e+00 0.0000000000000000e+00 0.0000000000000000e+00 
0.0000000000000000e+00 0.0000000000000000e+00 0.0000000000000000e+00 
0.0000000000000000e+00 0.0000000000000000e+00 0.0000000000000000e+00 
0.0000000000000000e+00 0.0000000000000000e+00 0.0000000000000000e+00 
0.0000000000000000e+00 0.0000000000000000e+00 0.0000000000000000e+00 
0.0000000000000000e+00 0.0000000000000000e+00 0.0000000000000000e+00 
0.0000000000000000e+00 0.0000000000000000e+00 0.0000000000000000e+00 
0.0000000000000000e+00 0.0000000000000000e+00 0.0000000000000000e+00 
0.0000000000000000e+00 0.0000000000000000e+00 0.0000000000000000e+00 
0.0000000000000000e+00 0.0000000000000000e+00 0.0000000000000000e+00 
0.0000000000000000e+00 0.0000000000000000e+00 0.0000000000000000e+00 
0.0000000000000000e+00 0.0000000000000000e+00 0.0000000000000000e+00 
0.0000000000000000e+00 0.0000000000000000e+00 0.0000000000000000e+00 
0.0000000000000000e+00 0.0000000000000000e+00 0.0000000000000000e+00 
0.0000000000000000e+00 0.0000000000000000e+00 0.0000000000000000e+00 
0.0000000000000000e+00 0.0000000000000000e+00 0.0000000000000000e+00 
0.0000000000000000e+00 0.0000000000000000e+00 0.0000000000000000e+00 
0.0000000000000000e+00 0.0000000000000000e+00 0.0000000000000000e+00 
0.0000000000000000e+00 0.0000000000000000e+00 0.0000000000000000e+00 
0.0000000000000000e+00 0.0000000000000000e+00 0.0000000000000000e+00 
0.0000000000000000e+00 0.0000000000000000e+00 0.0000000000000000e+00 
0.0000000000000000e+00 0.0000000000000000e+00 0.0000000000000000e+00 
0.0000000000000000e+00 0.0000000000000000e+00 0.0000000000000000e+00 
0.0000000000000000e+00 0.0000000000000000e+00 0.0000000000000000e+00 
0.0000000000000000e+00 0.0000000000000000e+00 0.0000000000000000e+00 
0.0000000000000000e+00 0.0000000000000000e+00 0.0000000000000000e+00 
0.0000000000000000e+00 0.0000000000000000e+00 0.0000000000000000e+00 
0.0000000000000000e+00 0.0000000000000000e+00 0.0000000000000000e+00 
0.0000000000000000e+00 0.0000000000000000e+00 0.0000000000000000e+00 
0.0000000000000000e+00 0.0000000000000000e+00 0.0000000000000000e+00 
0.0000000000000000e+00 0.0000000000000000e+00 0.0000000000000000e+00 

VECTORS Stress float
1.0968906026878797e+02 -3.5354060961796137e+00 -2.8132824865931155e-13 
1.0969167186088251e+02 -6.8421496334236931e+00 -3.9686309373690961e-13 
1.0928681722856392e+02 -9.2329667485782956e+00 -6.8128055838695608e-14 
1.0850318647977892e+02 -1.0285275277976780e+01 4.4670006339355099e-13 
1.0733356816018491e+02 -1.0267843864120207e+01 3.9594437700912142e-13 
1.0574868554866144e+02 -9.5054253974220018e+00 2.5187260746152027e-13 
1.0372355912939938e+02 -8.4479381460916976e+00 4.2088251929582037e-13 
1.0131050788408943e+02 -7.1478117272458306e+00 -1.0729207962103412e-13 
9.8636511850603384e+01 -5.0703380649964860e+00 -6.8868596976308225e-13 
9.5419813986167441e+01 -2.2382727414153236e+00 -4.1207313172375277e-13 
9.0854765702114832e+01 5.9215364839458617e-01 -9.4082658800094325e-14 
8.3831957656915691e+01 2.2565812705123096e+00 -1.6875535303292395e-13 
7.3170261024753955e+01 3.0003893746849166e+00 2.6211323887300327e-13 
5.5996705285627385e+01 2.8636712674186566e+00 9.3931697551305509e-13 
2.3336570955635366e+01 1.4639975462976862e+00 6.0651618140440221e-13 
-6.7774145261887364e+00 1.5534989514320381e+02 1.5916719515655728e-16 
-6.0580174931219988e+00 1.3637275626152541e+02 4.6028570732228449e-17 
-5.1158474921843320e+00 1.1027446027646099e+02 0.0000000000000000e+00 
8.1401239948094570e+01 -2.7973900167165113e+00 2.1771757300740968e-14 
8.1133995786856346e+01 -5.2823731200797734e+00 -7.6496439396789023e-15 
8.1243983023201878e+01 -7.0061040428553758e+00 1.0723054797019084e-13 
8.1974025674280526e+01 -7.8524594807864734e+00 -1.0136412543962769e-13 
8.3486733397162922e+01 -7.9150576413946832e+00 -2.4068904221829982e-13 
8.5765599516303624e+01 -7.5876191368689305e+00 -1.1941964749766683e-13 
8.8722653709427405e+01 -7.0626156524877262e+00 -2.8542202962140054e-13 
9.2228687015828982e+01 -6.3186468902296822e+00 -1.3512968662081129e-13 
9.6132709117295278e+01 -4.7382180708784656e+00 1.9274372150511383e-14 
9.9736246590874302e+01 -2.2224469062094170e+00 -1.1805285196145371e-14 
1.0196774659576214e+02 6.4147724372424775e-01 3.7934582116022124e-13 
1.0214123015022599e+02 2.5943757952721782e+00 7.1401831186568198e-13 
1.0057820502328876e+02 3.9172546512240425e+00 2.4364718098398653e-14 
9.7688821487902928e+01 4.5139484239236367e+00 -8.4643760335349088e-13 
9.3773057325040497e+01 4.5112327953505416e+00 -5.3240720588539001e-13 

