# vtk DataFile Version 2.0

ASCII

DATASET UNSTRUCTURED_GRID

POINTS 33 float 

-5.0000000000000003e-02  3.3333333335000000e-02  1.4999999999999997e-01
-5.0000000000000003e-02  9.9999999985000018e-02  1.4999999999999999e-01
-5.0000000000000003e-02  1.6666666665000002e-01  1.4999999999999999e-01
-5.0000000000000003e-02  2.3333333334999998e-01  1.4999999999999999e-01
-5.0000000000000003e-02  2.9999999999999993e-01  1.4999999999999997e-01
-5.0000000000000003e-02  3.6666666665000003e-01  1.4999999999999999e-01
-5.0000000000000003e-02  4.3333333335000002e-01  1.4999999999999999e-01
-5.0000000000000003e-02  5.0000000000000000e-01  1.4999999999999997e-01
-5.0000000000000003e-02  5.6666666664999987e-01  1.4999999999999999e-01
-5.0000000000000003e-02  6.3333333334999986e-01  1.4999999999999999e-01
-5.0000000000000003e-02  6.9999999999999984e-01  1.4999999999999997e-01
-5.0000000000000003e-02  7.6666666664999994e-01  1.4999999999999999e-01
-4.9999999999999996e-02  8.3333333334999982e-01  1.4999999999999999e-01
-5.0000000000000003e-02  8.9999999999999991e-01  1.4999999999999997e-01
-5.0000000000000003e-02  9.6666666664999990e-01  1.4999999999999999e-01
-3.3333333335000000e-02  9.9999999999999978e-01  1.4999999999999997e-01
0.0000000000000000e+00  1.0000000000000000e+00  1.4999999999999997e-01
3.3333333335000007e-02  1.0000000000000000e+00  1.4999999999999999e-01
5.0000000000000003e-02  3.3333333335000000e-02  1.4999999999999999e-01
5.0000000000000003e-02  9.9999999985000004e-02  1.4999999999999999e-01
5.0000000000000003e-02  1.6666666664999999e-01  1.4999999999999999e-01
5.0000000000000003e-02  2.3333333334999998e-01  1.4999999999999999e-01
5.0000000000000003e-02  2.9999999999999993e-01  1.4999999999999997e-01
5.0000000000000003e-02  3.6666666665000003e-01  1.4999999999999999e-01
5.0000000000000003e-02  4.3333333334999991e-01  1.4999999999999999e-01
5.0000000000000003e-02  5.0000000000000000e-01  1.4999999999999997e-01
5.0000000000000003e-02  5.6666666664999987e-01  1.4999999999999999e-01
5.0000000000000003e-02  6.3333333334999997e-01  1.4999999999999999e-01
5.0000000000000003e-02  6.9999999999999984e-01  1.4999999999999997e-01
5.0000000000000003e-02  7.6666666664999994e-01  1.4999999999999999e-01
5.0000000000000003e-02  8.3333333334999993e-01  1.4999999999999999e-01
5.0000000000000010e-02  8.9999999999999991e-01  1.4999999999999999e-01
5.0000000000000003e-02  9.6666666664999990e-01  1.4999999999999999e-01

CELLS 0 0


CELL_TYPES 0


POINT_DATA 33

VECTORS VertexNormals float

0.0000000000000000e+00 0.0000000000000000e+00 0.0000000000000000e+00 
0.0000000000000000e+00 0.0000000000000000e+00 0.0000000000000000e+00 
0.0000000000000000e+00 0.0000000000000000e+00 0.0000000000000000e+00 
0.0000000000000000e+00 0.0000000000000000e+00 0.0000000000000000e+00 
0.0000000000000000e+00 0.0000000000000000e+00 0.0000000000000000e+00 
0.0000000000000000e+00 0.0000000000000000e+00 0.0000000000000000e+00 
0.0000000000000000e+00 0.0000000000000000e+00 0.0000000000000000e+00 
0.0000000000000000e+00 0.0000000000000000e+00 0.0000000000000000e+00 
0.0000000000000000e+00 0.0000000000000000e+00 0.0000000000000000e+00 
0.0000000000000000e+00 0.0000000000000000e+00 0.0000000000000000e+00 
0.0000000000000000e+00 0.0000000000000000e+00 0.0000000000000000e+00 
0.0000000000000000e+00 0.0000000000000000e+00 0.0000000000000000e+00 
0.0000000000000000e+00 0.0000000000000000e+00 0.0000000000000000e+00 
0.0000000000000000e+00 0.0000000000000000e+00 0.0000000000000000e+00 
0.0000000000000000e+00 0.0000000000000000e+00 0.0000000000000000e+00 
0.0000000000000000e+00 0.0000000000000000e+00 0.0000000000000000e+00 
0.0000000000000000e+00 0.0000000000000000e+00 0.0000000000000000e+00 
0.0000000000000000e+00 0.0000000000000000e+00 0.0000000000000000e+00 
0.0000000000000000e+00 0.0000000000000000e+00 0.0000000000000000e+00 
0.0000000000000000e+00 0.0000000000000000e+00 0.0000000000000000e+00 
0.0000000000000000e+00 0.0000000000000000e+00 0.0000000000000000e+00 
0.0000000000000000e+00 0.0000000000000000e+00 0.0000000000000000e+00 
0.0000000000000000e+00 0.0000000000000000e+00 0.0000000000000000e+00 
0.0000000000000000e+00 0.0000000000000000e+00 0.0000000000000000e+00 
0.0000000000000000e+00 0.0000000000000000e+00 0.0000000000000000e+00 
0.0000000000000000e+00 0.0000000000000000e+00 0.0000000000000000e+00 
0.0000000000000000e+00 0.0000000000000000e+00 0.0000000000000000e+00 
0.0000000000000000e+00 0.0000000000000000e+00 0.0000000000000000e+00 
0.0000000000000000e+00 0.0000000000000000e+00 0.0000000000000000e+00 
0.0000000000000000e+00 0.0000000000000000e+00 0.0000000000000000e+00 
0.0000000000000000e+00 0.0000000000000000e+00 0.0000000000000000e+00 
0.0000000000000000e+00 0.0000000000000000e+00 0.0000000000000000e+00 
0.0000000000000000e+00 0.0000000000000000e+00 0.0000000000000000e+00 

VECTORS Stress float
1.1005968409477509e+02 -3.4322312448740084e+00 5.3105581384722971e-14 
1.1007053579700190e+02 -7.7358217204799749e+00 1.0358979388505941e-13 
1.0957850800957465e+02 -1.1561214307628203e+01 3.1362241885596456e-13 
1.0865036880946306e+02 -1.4173971479735751e+01 2.6055736549246970e-13 
1.0758017947785905e+02 -1.4681391961818946e+01 -3.2653115987107581e-16 
1.0632547926795631e+02 -1.3555113724157923e+01 -8.6346179324562954e-14 
1.0465186116296002e+02 -1.1582547782229165e+01 -1.6316336006873516e-13 
1.0244849253322525e+02 -9.2019081666954410e+00 -2.5675034632351190e-13 
9.9598839619048903e+01 -6.4129174011540648e+00 -6.6985065386325897e-14 
9.5673653272210430e+01 -3.8148066970278536e+00 1.1283241787044938e-13 
9.0206711218818228e+01 -1.8962488493016996e+00 7.6245394829571946e-14 
8.2670256811235745e+01 -4.9003190730908580e-01 2.7363787829330926e-13 
7.1746438140463724e+01 3.3204598625427079e-01 4.8029760115541058e-13 
5.4623260896890123e+01 5.0297827703964670e-01 1.2911749249901694e-12 
2.3839185745476058e+01 4.8990948788740019e-01 1.0056996621377174e-12 
-3.6663117697810566e-01 1.4014213144037004e+02 -7.7062605089147323e-17 
-5.3173898175445733e-01 1.2110966921562375e+02 8.0259313195874392e-17 
-6.5587371489722945e-01 9.8242947629687450e+01 -2.2498128055727617e-19 
6.8956260696637486e+01 -2.3341545960491117e+00 -6.0271494315204787e-14 
6.8589216298399720e+01 -5.1097573825965750e+00 -1.9373325310179286e-13 
6.8455974162786887e+01 -7.5664516619350000e+00 2.6186310804356221e-14 
6.8984921133928282e+01 -9.1628183800942811e+00 2.0596182730111709e-13 
7.0594419213128504e+01 -9.5956418330355113e+00 4.4377960551063819e-14 
7.3294104523823322e+01 -9.1135138932534243e+00 2.0582792903078891e-13 
7.6707128879508048e+01 -8.2082108764862891e+00 3.0400530706245226e-13 
8.0474611409247757e+01 -6.9228247292380338e+00 2.5255717112739298e-13 
8.4121583632446587e+01 -5.1743270016629372e+00 1.9368982210320328e-13 
8.6965630377108809e+01 -3.3103274453324394e+00 3.8518206688705456e-14 
8.8570797319744798e+01 -1.8253035964167921e+00 -6.8661448706055488e-14 
8.8961734877915205e+01 -5.4720779476255510e-01 -2.1671727575932040e-13 
8.8111224854444316e+01 2.2479381555522820e-01 -2.8963157532576876e-13 
8.6253805482229581e+01 4.8889872131395562e-01 1.3603229341428565e-13 
8.3670012199245193e+01 5.7253300839009269e-01 2.7820345019233700e-13 

