# vtk DataFile Version 2.0

ASCII

DATASET UNSTRUCTURED_GRID

POINTS 33 float 

-5.0000000000000003e-02  3.3333333335000000e-02  1.4999999999999997e-01
-5.0000000000000003e-02  9.9999999985000018e-02  1.4999999999999999e-01
-5.0000000000000003e-02  1.6666666665000002e-01  1.4999999999999999e-01
-5.0000000000000003e-02  2.3333333334999998e-01  1.4999999999999999e-01
-5.0000000000000003e-02  2.9999999999999993e-01  1.4999999999999997e-01
-5.0000000000000003e-02  3.6666666665000003e-01  1.4999999999999999e-01
-5.0000000000000003e-02  4.3333333335000002e-01  1.4999999999999999e-01
-5.0000000000000003e-02  5.0000000000000000e-01  1.4999999999999997e-01
-5.0000000000000003e-02  5.6666666664999987e-01  1.4999999999999999e-01
-5.0000000000000003e-02  6.3333333334999986e-01  1.4999999999999999e-01
-5.0000000000000003e-02  6.9999999999999984e-01  1.4999999999999997e-01
-5.0000000000000003e-02  7.6666666664999994e-01  1.4999999999999999e-01
-4.9999999999999996e-02  8.3333333334999982e-01  1.4999999999999999e-01
-5.0000000000000003e-02  8.9999999999999991e-01  1.4999999999999997e-01
-5.0000000000000003e-02  9.6666666664999990e-01  1.4999999999999999e-01
-3.3333333335000000e-02  9.9999999999999978e-01  1.4999999999999997e-01
0.0000000000000000e+00  1.0000000000000000e+00  1.4999999999999997e-01
3.3333333335000007e-02  1.0000000000000000e+00  1.4999999999999999e-01
5.0000000000000003e-02  3.3333333335000000e-02  1.4999999999999999e-01
5.0000000000000003e-02  9.9999999985000004e-02  1.4999999999999999e-01
5.0000000000000003e-02  1.6666666664999999e-01  1.4999999999999999e-01
5.0000000000000003e-02  2.3333333334999998e-01  1.4999999999999999e-01
5.0000000000000003e-02  2.9999999999999993e-01  1.4999999999999997e-01
5.0000000000000003e-02  3.6666666665000003e-01  1.4999999999999999e-01
5.0000000000000003e-02  4.3333333334999991e-01  1.4999999999999999e-01
5.0000000000000003e-02  5.0000000000000000e-01  1.4999999999999997e-01
5.0000000000000003e-02  5.6666666664999987e-01  1.4999999999999999e-01
5.0000000000000003e-02  6.3333333334999997e-01  1.4999999999999999e-01
5.0000000000000003e-02  6.9999999999999984e-01  1.4999999999999997e-01
5.0000000000000003e-02  7.6666666664999994e-01  1.4999999999999999e-01
5.0000000000000003e-02  8.3333333334999993e-01  1.4999999999999999e-01
5.0000000000000010e-02  8.9999999999999991e-01  1.4999999999999999e-01
5.0000000000000003e-02  9.6666666664999990e-01  1.4999999999999999e-01

CELLS 0 0


CELL_TYPES 0


POINT_DATA 33

VECTORS VertexNormals float

0.0000000000000000e+00 0.0000000000000000e+00 0.0000000000000000e+00 
0.0000000000000000e+00 0.0000000000000000e+00 0.0000000000000000e+00 
0.0000000000000000e+00 0.0000000000000000e+00 0.0000000000000000e+00 
0.0000000000000000e+00 0.0000000000000000e+00 0.0000000000000000e+00 
0.0000000000000000e+00 0.0000000000000000e+00 0.0000000000000000e+00 
0.0000000000000000e+00 0.0000000000000000e+00 0.0000000000000000e+00 
0.0000000000000000e+00 0.0000000000000000e+00 0.0000000000000000e+00 
0.0000000000000000e+00 0.0000000000000000e+00 0.0000000000000000e+00 
0.0000000000000000e+00 0.0000000000000000e+00 0.0000000000000000e+00 
0.0000000000000000e+00 0.0000000000000000e+00 0.0000000000000000e+00 
0.0000000000000000e+00 0.0000000000000000e+00 0.0000000000000000e+00 
0.0000000000000000e+00 0.0000000000000000e+00 0.0000000000000000e+00 
0.0000000000000000e+00 0.0000000000000000e+00 0.0000000000000000e+00 
0.0000000000000000e+00 0.0000000000000000e+00 0.0000000000000000e+00 
0.0000000000000000e+00 0.0000000000000000e+00 0.0000000000000000e+00 
0.0000000000000000e+00 0.0000000000000000e+00 0.0000000000000000e+00 
0.0000000000000000e+00 0.0000000000000000e+00 0.0000000000000000e+00 
0.0000000000000000e+00 0.0000000000000000e+00 0.0000000000000000e+00 
0.0000000000000000e+00 0.0000000000000000e+00 0.0000000000000000e+00 
0.0000000000000000e+00 0.0000000000000000e+00 0.0000000000000000e+00 
0.0000000000000000e+00 0.0000000000000000e+00 0.0000000000000000e+00 
0.0000000000000000e+00 0.0000000000000000e+00 0.0000000000000000e+00 
0.0000000000000000e+00 0.0000000000000000e+00 0.0000000000000000e+00 
0.0000000000000000e+00 0.0000000000000000e+00 0.0000000000000000e+00 
0.0000000000000000e+00 0.0000000000000000e+00 0.0000000000000000e+00 
0.0000000000000000e+00 0.0000000000000000e+00 0.0000000000000000e+00 
0.0000000000000000e+00 0.0000000000000000e+00 0.0000000000000000e+00 
0.0000000000000000e+00 0.0000000000000000e+00 0.0000000000000000e+00 
0.0000000000000000e+00 0.0000000000000000e+00 0.0000000000000000e+00 
0.0000000000000000e+00 0.0000000000000000e+00 0.0000000000000000e+00 
0.0000000000000000e+00 0.0000000000000000e+00 0.0000000000000000e+00 
0.0000000000000000e+00 0.0000000000000000e+00 0.0000000000000000e+00 
0.0000000000000000e+00 0.0000000000000000e+00 0.0000000000000000e+00 

VECTORS Stress float
1.3834489898539221e+02 -1.8262544036448081e+00 -5.9365012017997936e-14 
1.3802521473591298e+02 -1.2088270233816092e+00 -7.8925794900067332e-14 
1.3731037619718890e+02 -2.3367442592134752e-01 -2.7737025042072769e-14 
1.3627498897318537e+02 8.9400581311780580e-02 5.9764471804331085e-14 
1.3486673055792988e+02 1.4551861420890577e-01 6.7775474901007527e-14 
1.3293118097683990e+02 1.6402367370397145e-01 1.5438595047331159e-13 
1.3049418708630654e+02 1.8913731749376639e-01 2.4409023469195397e-13 
1.2748228323016477e+02 2.2025720377434788e-01 1.5015524349917689e-13 
1.2368325972928906e+02 2.5471784354637583e-01 1.5626902356922732e-13 
1.1873604728652326e+02 2.9103464316346661e-01 9.5816974621418291e-14 
1.1202870718445057e+02 3.2561486429030201e-01 3.6340942409948300e-14 
1.0231824839675544e+02 3.5905293907019209e-01 3.3732365053589986e-14 
8.7082101943020163e+01 4.1155739563297028e-01 -4.6601308902116772e-14 
6.0093575581096935e+01 5.1537573773151701e-01 -1.6148471089345112e-13 
1.2224633393663593e+00 4.8145730384746693e-01 -1.1730222940938005e-13 
2.9363521719910735e-01 4.6324992648554138e+02 8.0187774392102119e-17 
-6.9868751236273741e-01 4.7922664984137191e+02 -1.0038647119815499e-20 
-1.3455282688879713e+00 4.1708407433987350e+02 7.1438824626812682e-17 
7.8433427556381417e+01 -1.0279840653216128e+00 3.8745608388239770e-14 
7.9275272589833818e+01 -7.1009387004926838e-01 6.8255054609037990e-14 
8.1044874711547905e+01 -1.7820390053251992e-01 3.4663160350952156e-14 
8.3958595481114926e+01 -3.3390221258403144e-03 -6.9578445853228586e-14 
8.8137908391179522e+01 2.0369057095671935e-02 -7.5094209292472306e-14 
9.3755037377964200e+01 2.5259163623242275e-02 -1.4021216075342313e-13 
1.0108527603455384e+02 4.1106454651409087e-02 -2.3373482774872477e-13 
1.1079586107338901e+02 7.1850940574153185e-02 -1.4477628803273225e-13 
1.2426379004764026e+02 1.1919289876581449e-01 -1.4151106940500083e-13 
1.4284803598480778e+02 1.9618270117667397e-01 -9.0176835282944094e-14 
1.7007332674119158e+02 3.0118574712345125e-01 -4.7575776798591619e-14 
2.0917632661859258e+02 4.1925104794146273e-01 -4.3904513408701586e-14 
2.5530042606362170e+02 5.7397786245530868e-01 4.2601654492015104e-14 
3.0145211125510849e+02 8.5519719672727945e-01 1.0766814014334558e-13 
3.5752006092686008e+02 1.2347442490584508e+00 6.8622630726848217e-14 

