# vtk DataFile Version 2.0

ASCII

DATASET UNSTRUCTURED_GRID

POINTS 33 float 

-5.0000000000000003e-02  3.3333333335000000e-02  1.4999999999999997e-01
-5.0000000000000003e-02  9.9999999985000018e-02  1.4999999999999999e-01
-5.0000000000000003e-02  1.6666666665000002e-01  1.4999999999999999e-01
-5.0000000000000003e-02  2.3333333334999998e-01  1.4999999999999999e-01
-5.0000000000000003e-02  2.9999999999999993e-01  1.4999999999999997e-01
-5.0000000000000003e-02  3.6666666665000003e-01  1.4999999999999999e-01
-5.0000000000000003e-02  4.3333333335000002e-01  1.4999999999999999e-01
-5.0000000000000003e-02  5.0000000000000000e-01  1.4999999999999997e-01
-5.0000000000000003e-02  5.6666666664999987e-01  1.4999999999999999e-01
-5.0000000000000003e-02  6.3333333334999986e-01  1.4999999999999999e-01
-5.0000000000000003e-02  6.9999999999999984e-01  1.4999999999999997e-01
-5.0000000000000003e-02  7.6666666664999994e-01  1.4999999999999999e-01
-4.9999999999999996e-02  8.3333333334999982e-01  1.4999999999999999e-01
-5.0000000000000003e-02  8.9999999999999991e-01  1.4999999999999997e-01
-5.0000000000000003e-02  9.6666666664999990e-01  1.4999999999999999e-01
-3.3333333335000000e-02  9.9999999999999978e-01  1.4999999999999997e-01
0.0000000000000000e+00  1.0000000000000000e+00  1.4999999999999997e-01
3.3333333335000007e-02  1.0000000000000000e+00  1.4999999999999999e-01
5.0000000000000003e-02  3.3333333335000000e-02  1.4999999999999999e-01
5.0000000000000003e-02  9.9999999985000004e-02  1.4999999999999999e-01
5.0000000000000003e-02  1.6666666664999999e-01  1.4999999999999999e-01
5.0000000000000003e-02  2.3333333334999998e-01  1.4999999999999999e-01
5.0000000000000003e-02  2.9999999999999993e-01  1.4999999999999997e-01
5.0000000000000003e-02  3.6666666665000003e-01  1.4999999999999999e-01
5.0000000000000003e-02  4.3333333334999991e-01  1.4999999999999999e-01
5.0000000000000003e-02  5.0000000000000000e-01  1.4999999999999997e-01
5.0000000000000003e-02  5.6666666664999987e-01  1.4999999999999999e-01
5.0000000000000003e-02  6.3333333334999997e-01  1.4999999999999999e-01
5.0000000000000003e-02  6.9999999999999984e-01  1.4999999999999997e-01
5.0000000000000003e-02  7.6666666664999994e-01  1.4999999999999999e-01
5.0000000000000003e-02  8.3333333334999993e-01  1.4999999999999999e-01
5.0000000000000010e-02  8.9999999999999991e-01  1.4999999999999999e-01
5.0000000000000003e-02  9.6666666664999990e-01  1.4999999999999999e-01

CELLS 0 0


CELL_TYPES 0


POINT_DATA 33

VECTORS VertexNormals float

0.0000000000000000e+00 0.0000000000000000e+00 0.0000000000000000e+00 
0.0000000000000000e+00 0.0000000000000000e+00 0.0000000000000000e+00 
0.0000000000000000e+00 0.0000000000000000e+00 0.0000000000000000e+00 
0.0000000000000000e+00 0.0000000000000000e+00 0.0000000000000000e+00 
0.0000000000000000e+00 0.0000000000000000e+00 0.0000000000000000e+00 
0.0000000000000000e+00 0.0000000000000000e+00 0.0000000000000000e+00 
0.0000000000000000e+00 0.0000000000000000e+00 0.0000000000000000e+00 
0.0000000000000000e+00 0.0000000000000000e+00 0.0000000000000000e+00 
0.0000000000000000e+00 0.0000000000000000e+00 0.0000000000000000e+00 
0.0000000000000000e+00 0.0000000000000000e+00 0.0000000000000000e+00 
0.0000000000000000e+00 0.0000000000000000e+00 0.0000000000000000e+00 
0.0000000000000000e+00 0.0000000000000000e+00 0.0000000000000000e+00 
0.0000000000000000e+00 0.0000000000000000e+00 0.0000000000000000e+00 
0.0000000000000000e+00 0.0000000000000000e+00 0.0000000000000000e+00 
0.0000000000000000e+00 0.0000000000000000e+00 0.0000000000000000e+00 
0.0000000000000000e+00 0.0000000000000000e+00 0.0000000000000000e+00 
0.0000000000000000e+00 0.0000000000000000e+00 0.0000000000000000e+00 
0.0000000000000000e+00 0.0000000000000000e+00 0.0000000000000000e+00 
0.0000000000000000e+00 0.0000000000000000e+00 0.0000000000000000e+00 
0.0000000000000000e+00 0.0000000000000000e+00 0.0000000000000000e+00 
0.0000000000000000e+00 0.0000000000000000e+00 0.0000000000000000e+00 
0.0000000000000000e+00 0.0000000000000000e+00 0.0000000000000000e+00 
0.0000000000000000e+00 0.0000000000000000e+00 0.0000000000000000e+00 
0.0000000000000000e+00 0.0000000000000000e+00 0.0000000000000000e+00 
0.0000000000000000e+00 0.0000000000000000e+00 0.0000000000000000e+00 
0.0000000000000000e+00 0.0000000000000000e+00 0.0000000000000000e+00 
0.0000000000000000e+00 0.0000000000000000e+00 0.0000000000000000e+00 
0.0000000000000000e+00 0.0000000000000000e+00 0.0000000000000000e+00 
0.0000000000000000e+00 0.0000000000000000e+00 0.0000000000000000e+00 
0.0000000000000000e+00 0.0000000000000000e+00 0.0000000000000000e+00 
0.0000000000000000e+00 0.0000000000000000e+00 0.0000000000000000e+00 
0.0000000000000000e+00 0.0000000000000000e+00 0.0000000000000000e+00 
0.0000000000000000e+00 0.0000000000000000e+00 0.0000000000000000e+00 

VECTORS Stress float
1.5430852095595463e+02 -4.9750595656541705e+00 -4.3361457528990623e-13 
1.5423841395943157e+02 -1.1394534470059586e+01 -7.7619934605420958e-14 
1.5369868427207876e+02 -1.7941696764099344e+01 3.5451621617678988e-13 
1.5191183853583948e+02 -2.4504849430044370e+01 6.3291337253565511e-14 
1.4871565071856318e+02 -3.0506068956658034e+01 6.3545091731856868e-14 
1.4444091259130028e+02 -3.5111456273209093e+01 8.2633943111212010e-13 
1.3951269685599067e+02 -3.7927267945031566e+01 1.4036746725691693e-12 
1.3372657496408266e+02 -3.9667315605654920e+01 1.6981662211248085e-13 
1.2714767022747998e+02 -4.0339705928704674e+01 -1.5753000365190474e-12 
1.1959995236737518e+02 -4.0462966794936818e+01 -1.1643052160326804e-12 
1.1141889968008240e+02 -3.9277512232249038e+01 1.3990791666320554e-12 
1.0211851158262046e+02 -3.7136452365296996e+01 2.5411643200107407e-12 
9.1028131787848096e+01 -3.4081256777935963e+01 2.3321472010422354e-12 
7.7596430907355384e+01 -2.9390787377993078e+01 1.9725061509605294e-12 
5.9081580746429537e+01 -2.2195785021034407e+01 7.4394612707295335e-13 
1.7643071067471418e+01 4.6009876408296819e+01 -1.5252569781615582e-16 
9.8053140814097652e+00 2.5888363807856624e+01 1.3545169483070634e-16 
4.0731907354497610e+00 1.1103311290045164e+01 1.4775908208694552e-17 
-3.3672104985151897e+01 1.1726231096268036e+00 9.5922687227510586e-13 
-3.3785307228786770e+01 2.6998129340928774e+00 9.0163756431182260e-13 
-3.3652937158930008e+01 4.2455987701546549e+00 -1.2058158357328506e-13 
-3.3123718987928193e+01 5.7749078877606577e+00 -6.6452541000769267e-13 
-3.2045615272518859e+01 7.0927397669553516e+00 -6.0900623221284984e-13 
-3.0352936752457282e+01 7.8632181961064882e+00 -5.0522998054260563e-13 
-2.8110330015458931e+01 8.1221075169748627e+00 -1.0135834950681069e-12 
-2.5523265010109689e+01 7.9942293596190508e+00 6.3265183608621316e-14 
-2.2679296830833202e+01 7.6254378411187975e+00 1.7594979421704970e-12 
-1.9609849969490657e+01 7.0112152767446254e+00 1.1930208813377223e-12 
-1.6405354817180964e+01 6.1297875842375351e+00 -3.2466316054805814e-13 
-1.3191340888466407e+01 5.1241010633308646e+00 -1.1125105667209116e-12 
-1.0039582495662300e+01 4.0602704507082699e+00 -1.8360333539261988e-12 
-7.0576100487423998e+00 2.9519132308182532e+00 -1.4019703281136126e-12 
-4.5053388967957160e+00 1.9904094459993265e+00 -3.7081543838585704e-13 

