# vtk DataFile Version 2.0

ASCII

DATASET UNSTRUCTURED_GRID

POINTS 33 float 

-5.0000000000000003e-02  3.3333333335000000e-02  1.4999999999999997e-01
-5.0000000000000003e-02  9.9999999985000018e-02  1.4999999999999999e-01
-5.0000000000000003e-02  1.6666666665000002e-01  1.4999999999999999e-01
-5.0000000000000003e-02  2.3333333334999998e-01  1.4999999999999999e-01
-5.0000000000000003e-02  2.9999999999999993e-01  1.4999999999999997e-01
-5.0000000000000003e-02  3.6666666665000003e-01  1.4999999999999999e-01
-5.0000000000000003e-02  4.3333333335000002e-01  1.4999999999999999e-01
-5.0000000000000003e-02  5.0000000000000000e-01  1.4999999999999997e-01
-5.0000000000000003e-02  5.6666666664999987e-01  1.4999999999999999e-01
-5.0000000000000003e-02  6.3333333334999986e-01  1.4999999999999999e-01
-5.0000000000000003e-02  6.9999999999999984e-01  1.4999999999999997e-01
-5.0000000000000003e-02  7.6666666664999994e-01  1.4999999999999999e-01
-4.9999999999999996e-02  8.3333333334999982e-01  1.4999999999999999e-01
-5.0000000000000003e-02  8.9999999999999991e-01  1.4999999999999997e-01
-5.0000000000000003e-02  9.6666666664999990e-01  1.4999999999999999e-01
-3.3333333335000000e-02  9.9999999999999978e-01  1.4999999999999997e-01
0.0000000000000000e+00  1.0000000000000000e+00  1.4999999999999997e-01
3.3333333335000007e-02  1.0000000000000000e+00  1.4999999999999999e-01
5.0000000000000003e-02  3.3333333335000000e-02  1.4999999999999999e-01
5.0000000000000003e-02  9.9999999985000004e-02  1.4999999999999999e-01
5.0000000000000003e-02  1.6666666664999999e-01  1.4999999999999999e-01
5.0000000000000003e-02  2.3333333334999998e-01  1.4999999999999999e-01
5.0000000000000003e-02  2.9999999999999993e-01  1.4999999999999997e-01
5.0000000000000003e-02  3.6666666665000003e-01  1.4999999999999999e-01
5.0000000000000003e-02  4.3333333334999991e-01  1.4999999999999999e-01
5.0000000000000003e-02  5.0000000000000000e-01  1.4999999999999997e-01
5.0000000000000003e-02  5.6666666664999987e-01  1.4999999999999999e-01
5.0000000000000003e-02  6.3333333334999997e-01  1.4999999999999999e-01
5.0000000000000003e-02  6.9999999999999984e-01  1.4999999999999997e-01
5.0000000000000003e-02  7.6666666664999994e-01  1.4999999999999999e-01
5.0000000000000003e-02  8.3333333334999993e-01  1.4999999999999999e-01
5.0000000000000010e-02  8.9999999999999991e-01  1.4999999999999999e-01
5.0000000000000003e-02  9.6666666664999990e-01  1.4999999999999999e-01

CELLS 0 0


CELL_TYPES 0


POINT_DATA 33

VECTORS VertexNormals float

0.0000000000000000e+00 0.0000000000000000e+00 0.0000000000000000e+00 
0.0000000000000000e+00 0.0000000000000000e+00 0.0000000000000000e+00 
0.0000000000000000e+00 0.0000000000000000e+00 0.0000000000000000e+00 
0.0000000000000000e+00 0.0000000000000000e+00 0.0000000000000000e+00 
0.0000000000000000e+00 0.0000000000000000e+00 0.0000000000000000e+00 
0.0000000000000000e+00 0.0000000000000000e+00 0.0000000000000000e+00 
0.0000000000000000e+00 0.0000000000000000e+00 0.0000000000000000e+00 
0.0000000000000000e+00 0.0000000000000000e+00 0.0000000000000000e+00 
0.0000000000000000e+00 0.0000000000000000e+00 0.0000000000000000e+00 
0.0000000000000000e+00 0.0000000000000000e+00 0.0000000000000000e+00 
0.0000000000000000e+00 0.0000000000000000e+00 0.0000000000000000e+00 
0.0000000000000000e+00 0.0000000000000000e+00 0.0000000000000000e+00 
0.0000000000000000e+00 0.0000000000000000e+00 0.0000000000000000e+00 
0.0000000000000000e+00 0.0000000000000000e+00 0.0000000000000000e+00 
0.0000000000000000e+00 0.0000000000000000e+00 0.0000000000000000e+00 
0.0000000000000000e+00 0.0000000000000000e+00 0.0000000000000000e+00 
0.0000000000000000e+00 0.0000000000000000e+00 0.0000000000000000e+00 
0.0000000000000000e+00 0.0000000000000000e+00 0.0000000000000000e+00 
0.0000000000000000e+00 0.0000000000000000e+00 0.0000000000000000e+00 
0.0000000000000000e+00 0.0000000000000000e+00 0.0000000000000000e+00 
0.0000000000000000e+00 0.0000000000000000e+00 0.0000000000000000e+00 
0.0000000000000000e+00 0.0000000000000000e+00 0.0000000000000000e+00 
0.0000000000000000e+00 0.0000000000000000e+00 0.0000000000000000e+00 
0.0000000000000000e+00 0.0000000000000000e+00 0.0000000000000000e+00 
0.0000000000000000e+00 0.0000000000000000e+00 0.0000000000000000e+00 
0.0000000000000000e+00 0.0000000000000000e+00 0.0000000000000000e+00 
0.0000000000000000e+00 0.0000000000000000e+00 0.0000000000000000e+00 
0.0000000000000000e+00 0.0000000000000000e+00 0.0000000000000000e+00 
0.0000000000000000e+00 0.0000000000000000e+00 0.0000000000000000e+00 
0.0000000000000000e+00 0.0000000000000000e+00 0.0000000000000000e+00 
0.0000000000000000e+00 0.0000000000000000e+00 0.0000000000000000e+00 
0.0000000000000000e+00 0.0000000000000000e+00 0.0000000000000000e+00 
0.0000000000000000e+00 0.0000000000000000e+00 0.0000000000000000e+00 

VECTORS Stress float
1.1409157987418884e+02 -5.6129802676803164e+00 -4.2689832410678678e-13 
1.1403770753561875e+02 -1.1262353481640378e+01 -6.3433967145574637e-13 
1.1369684030656906e+02 -1.5139749175942844e+01 8.9578402455025729e-14 
1.1303260835593098e+02 -1.6615852967288173e+01 1.3176045754674830e-12 
1.1193922934474169e+02 -1.6433213116645817e+01 1.0130895968387290e-12 
1.1037742946756958e+02 -1.5446593800781951e+01 -4.3614980535408055e-13 
1.0813689485835546e+02 -1.4459340779420430e+01 -5.6129694641559861e-13 
1.0513390912483851e+02 -1.3350203637874761e+01 2.5301809987322556e-13 
1.0139225516162503e+02 -1.1622452935107244e+01 1.2398266472098928e-12 
9.6631035203540691e+01 -9.8590114798605679e+00 8.6106307537886228e-13 
9.0594602675275169e+01 -8.1087667256812335e+00 -1.6868694718535398e-13 
8.2637853752876268e+01 -6.5611292334328537e+00 -7.5192125323248724e-13 
7.1582868037829314e+01 -5.2164732281753263e+00 -6.1639079339562815e-13 
5.5135344323686773e+01 -3.7761834323098045e+00 1.2095075194831447e-12 
2.6874262356051648e+01 -1.6353628317449287e+00 1.2165669392009566e-12 
9.4035139921804021e+00 1.2134616974999504e+02 -8.1399111477762633e-17 
7.7552749323986117e+00 1.0189507584884410e+02 8.0499357597537382e-17 
5.9885851052278909e+00 8.1770386809746228e+01 7.9661769616972567e-17 
5.1754039677699090e+01 -2.7788102294420063e+00 1.5762544646481735e-13 
5.1391204066390038e+01 -5.4370719672113488e+00 3.7990477828122779e-13 
5.1391247172782613e+01 -7.0714649723536347e+00 -1.6623384931256315e-13 
5.2027311111434891e+01 -7.6822391203110065e+00 -1.0585729776089916e-12 
5.3516630123839583e+01 -7.7856540238312366e+00 -6.6935392002991378e-13 
5.5922977885162531e+01 -7.6775831339565741e+00 7.3911814468067939e-13 
5.8846701549650362e+01 -7.7416745878646402e+00 1.1496389251900479e-12 
6.2008678611743910e+01 -7.6766775382611439e+00 2.6352150600420688e-13 
6.5144816599497247e+01 -7.2836852734907822e+00 -1.3812481527144077e-12 
6.7853604085792085e+01 -6.7480221244740033e+00 -1.2345062113082417e-12 
6.9904967191979836e+01 -6.1529308976218067e+00 4.0893090612071095e-13 
7.1080153379041278e+01 -5.6019378691835824e+00 1.0105704801553243e-12 
7.1258485613798200e+01 -5.2473180943692270e+00 7.0230460335368321e-13 
7.0544827156212889e+01 -5.0670578917495757e+00 -1.4289068419226306e-13 
6.9109445216047320e+01 -4.9475520605358678e+00 -2.4870939719875615e-13 

