# vtk DataFile Version 2.0

ASCII

DATASET UNSTRUCTURED_GRID

POINTS 33 float 

-5.0000000000000003e-02  3.3333333335000000e-02  1.4999999999999997e-01
-5.0000000000000003e-02  9.9999999985000018e-02  1.4999999999999999e-01
-5.0000000000000003e-02  1.6666666665000002e-01  1.4999999999999999e-01
-5.0000000000000003e-02  2.3333333334999998e-01  1.4999999999999999e-01
-5.0000000000000003e-02  2.9999999999999993e-01  1.4999999999999997e-01
-5.0000000000000003e-02  3.6666666665000003e-01  1.4999999999999999e-01
-5.0000000000000003e-02  4.3333333335000002e-01  1.4999999999999999e-01
-5.0000000000000003e-02  5.0000000000000000e-01  1.4999999999999997e-01
-5.0000000000000003e-02  5.6666666664999987e-01  1.4999999999999999e-01
-5.0000000000000003e-02  6.3333333334999986e-01  1.4999999999999999e-01
-5.0000000000000003e-02  6.9999999999999984e-01  1.4999999999999997e-01
-5.0000000000000003e-02  7.6666666664999994e-01  1.4999999999999999e-01
-4.9999999999999996e-02  8.3333333334999982e-01  1.4999999999999999e-01
-5.0000000000000003e-02  8.9999999999999991e-01  1.4999999999999997e-01
-5.0000000000000003e-02  9.6666666664999990e-01  1.4999999999999999e-01
-3.3333333335000000e-02  9.9999999999999978e-01  1.4999999999999997e-01
0.0000000000000000e+00  1.0000000000000000e+00  1.4999999999999997e-01
3.3333333335000007e-02  1.0000000000000000e+00  1.4999999999999999e-01
5.0000000000000003e-02  3.3333333335000000e-02  1.4999999999999999e-01
5.0000000000000003e-02  9.9999999985000004e-02  1.4999999999999999e-01
5.0000000000000003e-02  1.6666666664999999e-01  1.4999999999999999e-01
5.0000000000000003e-02  2.3333333334999998e-01  1.4999999999999999e-01
5.0000000000000003e-02  2.9999999999999993e-01  1.4999999999999997e-01
5.0000000000000003e-02  3.6666666665000003e-01  1.4999999999999999e-01
5.0000000000000003e-02  4.3333333334999991e-01  1.4999999999999999e-01
5.0000000000000003e-02  5.0000000000000000e-01  1.4999999999999997e-01
5.0000000000000003e-02  5.6666666664999987e-01  1.4999999999999999e-01
5.0000000000000003e-02  6.3333333334999997e-01  1.4999999999999999e-01
5.0000000000000003e-02  6.9999999999999984e-01  1.4999999999999997e-01
5.0000000000000003e-02  7.6666666664999994e-01  1.4999999999999999e-01
5.0000000000000003e-02  8.3333333334999993e-01  1.4999999999999999e-01
5.0000000000000010e-02  8.9999999999999991e-01  1.4999999999999999e-01
5.0000000000000003e-02  9.6666666664999990e-01  1.4999999999999999e-01

CELLS 0 0


CELL_TYPES 0


POINT_DATA 33

VECTORS VertexNormals float

0.0000000000000000e+00 0.0000000000000000e+00 0.0000000000000000e+00 
0.0000000000000000e+00 0.0000000000000000e+00 0.0000000000000000e+00 
0.0000000000000000e+00 0.0000000000000000e+00 0.0000000000000000e+00 
0.0000000000000000e+00 0.0000000000000000e+00 0.0000000000000000e+00 
0.0000000000000000e+00 0.0000000000000000e+00 0.0000000000000000e+00 
0.0000000000000000e+00 0.0000000000000000e+00 0.0000000000000000e+00 
0.0000000000000000e+00 0.0000000000000000e+00 0.0000000000000000e+00 
0.0000000000000000e+00 0.0000000000000000e+00 0.0000000000000000e+00 
0.0000000000000000e+00 0.0000000000000000e+00 0.0000000000000000e+00 
0.0000000000000000e+00 0.0000000000000000e+00 0.0000000000000000e+00 
0.0000000000000000e+00 0.0000000000000000e+00 0.0000000000000000e+00 
0.0000000000000000e+00 0.0000000000000000e+00 0.0000000000000000e+00 
0.0000000000000000e+00 0.0000000000000000e+00 0.0000000000000000e+00 
0.0000000000000000e+00 0.0000000000000000e+00 0.0000000000000000e+00 
0.0000000000000000e+00 0.0000000000000000e+00 0.0000000000000000e+00 
0.0000000000000000e+00 0.0000000000000000e+00 0.0000000000000000e+00 
0.0000000000000000e+00 0.0000000000000000e+00 0.0000000000000000e+00 
0.0000000000000000e+00 0.0000000000000000e+00 0.0000000000000000e+00 
0.0000000000000000e+00 0.0000000000000000e+00 0.0000000000000000e+00 
0.0000000000000000e+00 0.0000000000000000e+00 0.0000000000000000e+00 
0.0000000000000000e+00 0.0000000000000000e+00 0.0000000000000000e+00 
0.0000000000000000e+00 0.0000000000000000e+00 0.0000000000000000e+00 
0.0000000000000000e+00 0.0000000000000000e+00 0.0000000000000000e+00 
0.0000000000000000e+00 0.0000000000000000e+00 0.0000000000000000e+00 
0.0000000000000000e+00 0.0000000000000000e+00 0.0000000000000000e+00 
0.0000000000000000e+00 0.0000000000000000e+00 0.0000000000000000e+00 
0.0000000000000000e+00 0.0000000000000000e+00 0.0000000000000000e+00 
0.0000000000000000e+00 0.0000000000000000e+00 0.0000000000000000e+00 
0.0000000000000000e+00 0.0000000000000000e+00 0.0000000000000000e+00 
0.0000000000000000e+00 0.0000000000000000e+00 0.0000000000000000e+00 
0.0000000000000000e+00 0.0000000000000000e+00 0.0000000000000000e+00 
0.0000000000000000e+00 0.0000000000000000e+00 0.0000000000000000e+00 
0.0000000000000000e+00 0.0000000000000000e+00 0.0000000000000000e+00 

VECTORS Stress float
1.2190449663746450e+02 -1.8174067685778650e+00 1.5949000810860587e-14 
1.2183464382063337e+02 -2.6968615803011398e+00 -4.4051209522211425e-14 
1.2134375686024745e+02 -2.7563690219183865e+00 -1.7900407018386326e-13 
1.2045807632344118e+02 -1.2793430779331700e+00 -1.8909851044353352e-13 
1.1926859481602784e+02 7.3868847944097843e-02 -7.0449996708011693e-14 
1.1772279433854020e+02 4.2901548883075091e-01 -1.4057462960293827e-13 
1.1566235629658803e+02 3.6130319338993272e-01 -2.1252256689246686e-13 
1.1293849789929169e+02 2.9331422363169535e-01 -7.7689163777324566e-14 
1.0936953216283848e+02 2.7966120049884852e-01 8.9899812967954466e-14 
1.0465696692008599e+02 2.8309154085037835e-01 9.5753202545466317e-14 
9.8296750676752922e+01 3.2472307859286748e-01 -1.0484963323193787e-13 
8.9336932302725955e+01 4.4878463960671711e-01 -1.4511967645649366e-13 
7.5716401200330296e+01 5.5208047624932832e-01 -7.9855173121194977e-14 
5.2540350217704656e+01 5.7390554275063976e-01 -1.7573079886090447e-13 
4.9089410629243666e+00 4.6116494249194523e-01 -1.3611394823985002e-13 
-9.7757552896827804e-02 3.3831463948512112e+02 -7.6631103178242674e-17 
-6.5739666709888667e-01 3.1452212069986166e+02 8.0234157565205051e-17 
-8.4644213285428593e-01 2.4554123669345583e+02 8.0272041404431797e-17 
9.1077892306218956e+01 -1.3933335884862819e+00 5.6466456970534504e-14 
9.1779268223464626e+01 -2.0473739387728402e+00 1.0037793372371613e-13 
9.3188351383459903e+01 -2.1267058111829269e+00 1.2924933019408282e-13 
9.5439089898499446e+01 -1.0246304294561455e+00 1.8959531062763169e-13 
9.8535893286433065e+01 3.2504859134290180e-02 1.0378404225407294e-13 
1.0259010309577758e+02 3.4429021061370974e-01 1.8957049891263454e-14 
1.0812810563296500e+02 3.0983674818165036e-01 5.1679111712854728e-14 
1.1544237907642695e+02 2.7445770268931191e-01 5.4776832760395071e-14 
1.2516753756132576e+02 2.9224141075967369e-01 -3.4042532218432301e-14 
1.3816251226313133e+02 3.2659807272664360e-01 -5.6007372687453043e-14 
1.5503366459986833e+02 4.0265028851576579e-01 5.2672251058362539e-14 
1.7492448619130556e+02 6.2613075449212041e-01 8.2740628356414258e-14 
1.9329242336632021e+02 9.0928521755861813e-01 9.7923591780476340e-14 
2.0322234303321727e+02 1.0916694850433704e+00 2.0298382106389839e-13 
1.9945415655090579e+02 1.0521220755310243e+00 1.3491330963234485e-13 

