# vtk DataFile Version 2.0

ASCII

DATASET UNSTRUCTURED_GRID

POINTS 33 float 

-5.0000000000000003e-02  3.3333333335000000e-02  1.4999999999999997e-01
-5.0000000000000003e-02  9.9999999985000018e-02  1.4999999999999999e-01
-5.0000000000000003e-02  1.6666666665000002e-01  1.4999999999999999e-01
-5.0000000000000003e-02  2.3333333334999998e-01  1.4999999999999999e-01
-5.0000000000000003e-02  2.9999999999999993e-01  1.4999999999999997e-01
-5.0000000000000003e-02  3.6666666665000003e-01  1.4999999999999999e-01
-5.0000000000000003e-02  4.3333333335000002e-01  1.4999999999999999e-01
-5.0000000000000003e-02  5.0000000000000000e-01  1.4999999999999997e-01
-5.0000000000000003e-02  5.6666666664999987e-01  1.4999999999999999e-01
-5.0000000000000003e-02  6.3333333334999986e-01  1.4999999999999999e-01
-5.0000000000000003e-02  6.9999999999999984e-01  1.4999999999999997e-01
-5.0000000000000003e-02  7.6666666664999994e-01  1.4999999999999999e-01
-4.9999999999999996e-02  8.3333333334999982e-01  1.4999999999999999e-01
-5.0000000000000003e-02  8.9999999999999991e-01  1.4999999999999997e-01
-5.0000000000000003e-02  9.6666666664999990e-01  1.4999999999999999e-01
-3.3333333335000000e-02  9.9999999999999978e-01  1.4999999999999997e-01
0.0000000000000000e+00  1.0000000000000000e+00  1.4999999999999997e-01
3.3333333335000007e-02  1.0000000000000000e+00  1.4999999999999999e-01
5.0000000000000003e-02  3.3333333335000000e-02  1.4999999999999999e-01
5.0000000000000003e-02  9.9999999985000004e-02  1.4999999999999999e-01
5.0000000000000003e-02  1.6666666664999999e-01  1.4999999999999999e-01
5.0000000000000003e-02  2.3333333334999998e-01  1.4999999999999999e-01
5.0000000000000003e-02  2.9999999999999993e-01  1.4999999999999997e-01
5.0000000000000003e-02  3.6666666665000003e-01  1.4999999999999999e-01
5.0000000000000003e-02  4.3333333334999991e-01  1.4999999999999999e-01
5.0000000000000003e-02  5.0000000000000000e-01  1.4999999999999997e-01
5.0000000000000003e-02  5.6666666664999987e-01  1.4999999999999999e-01
5.0000000000000003e-02  6.3333333334999997e-01  1.4999999999999999e-01
5.0000000000000003e-02  6.9999999999999984e-01  1.4999999999999997e-01
5.0000000000000003e-02  7.6666666664999994e-01  1.4999999999999999e-01
5.0000000000000003e-02  8.3333333334999993e-01  1.4999999999999999e-01
5.0000000000000010e-02  8.9999999999999991e-01  1.4999999999999999e-01
5.0000000000000003e-02  9.6666666664999990e-01  1.4999999999999999e-01

CELLS 0 0


CELL_TYPES 0


POINT_DATA 33

VECTORS VertexNormals float

0.0000000000000000e+00 0.0000000000000000e+00 0.0000000000000000e+00 
0.0000000000000000e+00 0.0000000000000000e+00 0.0000000000000000e+00 
0.0000000000000000e+00 0.0000000000000000e+00 0.0000000000000000e+00 
0.0000000000000000e+00 0.0000000000000000e+00 0.0000000000000000e+00 
0.0000000000000000e+00 0.0000000000000000e+00 0.0000000000000000e+00 
0.0000000000000000e+00 0.0000000000000000e+00 0.0000000000000000e+00 
0.0000000000000000e+00 0.0000000000000000e+00 0.0000000000000000e+00 
0.0000000000000000e+00 0.0000000000000000e+00 0.0000000000000000e+00 
0.0000000000000000e+00 0.0000000000000000e+00 0.0000000000000000e+00 
0.0000000000000000e+00 0.0000000000000000e+00 0.0000000000000000e+00 
0.0000000000000000e+00 0.0000000000000000e+00 0.0000000000000000e+00 
0.0000000000000000e+00 0.0000000000000000e+00 0.0000000000000000e+00 
0.0000000000000000e+00 0.0000000000000000e+00 0.0000000000000000e+00 
0.0000000000000000e+00 0.0000000000000000e+00 0.0000000000000000e+00 
0.0000000000000000e+00 0.0000000000000000e+00 0.0000000000000000e+00 
0.0000000000000000e+00 0.0000000000000000e+00 0.0000000000000000e+00 
0.0000000000000000e+00 0.0000000000000000e+00 0.0000000000000000e+00 
0.0000000000000000e+00 0.0000000000000000e+00 0.0000000000000000e+00 
0.0000000000000000e+00 0.0000000000000000e+00 0.0000000000000000e+00 
0.0000000000000000e+00 0.0000000000000000e+00 0.0000000000000000e+00 
0.0000000000000000e+00 0.0000000000000000e+00 0.0000000000000000e+00 
0.0000000000000000e+00 0.0000000000000000e+00 0.0000000000000000e+00 
0.0000000000000000e+00 0.0000000000000000e+00 0.0000000000000000e+00 
0.0000000000000000e+00 0.0000000000000000e+00 0.0000000000000000e+00 
0.0000000000000000e+00 0.0000000000000000e+00 0.0000000000000000e+00 
0.0000000000000000e+00 0.0000000000000000e+00 0.0000000000000000e+00 
0.0000000000000000e+00 0.0000000000000000e+00 0.0000000000000000e+00 
0.0000000000000000e+00 0.0000000000000000e+00 0.0000000000000000e+00 
0.0000000000000000e+00 0.0000000000000000e+00 0.0000000000000000e+00 
0.0000000000000000e+00 0.0000000000000000e+00 0.0000000000000000e+00 
0.0000000000000000e+00 0.0000000000000000e+00 0.0000000000000000e+00 
0.0000000000000000e+00 0.0000000000000000e+00 0.0000000000000000e+00 
0.0000000000000000e+00 0.0000000000000000e+00 0.0000000000000000e+00 

VECTORS Stress float
1.1150165018970634e+02 -2.4642603925732267e+00 3.4248933562435126e-13 
1.1143821007563194e+02 -4.3324986967655645e+00 3.5337946533104180e-13 
1.1093763833647057e+02 -5.4179507262102664e+00 1.3140972109532855e-14 
1.1003749327836374e+02 -5.6376030016852567e+00 3.0319508315189851e-13 
1.0879860661795254e+02 -5.1337906469487837e+00 3.0221116819643507e-13 
1.0724318183792913e+02 -4.0449253242731151e+00 1.5147440048786682e-13 
1.0528194105227800e+02 -2.5889526434813956e+00 2.0400877774688817e-13 
1.0283353668515299e+02 -1.0130953807085665e+00 1.5873614282280713e-13 
9.9655427923583687e+01 2.1622382699042819e-01 3.9488087016792204e-13 
9.5539062701617212e+01 1.4736229788179751e+00 2.8945745044299147e-13 
9.0008822688231618e+01 1.9829537981787577e+00 -3.5002510540041142e-14 
8.2036708592706901e+01 1.4395963408116423e+00 -5.1600130303400395e-14 
7.0135707587247182e+01 8.2072516064103151e-01 -8.8909043564624440e-14 
5.1224912457037000e+01 5.7663654913414897e-01 -2.2713620363516239e-13 
1.5711085449459677e+01 4.6747904479749197e-01 -1.5484669629042694e-13 
-4.3692328042105733e-01 1.9377833874367929e+02 -1.5622319959695838e-16 
-6.7468957771680083e-01 1.7242758605390659e+02 -3.5755078587648248e-18 
-7.7903652531431755e-01 1.3790474129321890e+02 4.7796116747493430e-20 
1.0061288060823867e+02 -2.2228295920195471e+00 -5.8257642444887141e-13 
1.0071890860641686e+02 -3.9694240266548451e+00 -6.2501390467204990e-13 
1.0124630131767374e+02 -4.9940751359807738e+00 -1.0897120116634968e-14 
1.0235196274073519e+02 -5.2180621439755424e+00 -1.4404126315616279e-13 
1.0417933116444982e+02 -4.8572694211231715e+00 -1.7245488353608379e-13 
1.0688825941081535e+02 -3.9730983639808879e+00 -2.8780819539563648e-13 
1.1053307585455930e+02 -2.6559455040648916e+00 -3.8872070759437901e-13 
1.1507498348912789e+02 -1.0927469279183608e+00 -1.0138792879758142e-13 
1.2010352566856731e+02 2.5849354737144720e-01 -5.3384944880504513e-14 
1.2509993319592031e+02 1.8692158758367337e+00 -5.2733459618273220e-14 
1.2912241268530377e+02 2.7656419106501207e+00 -3.9241545318890183e-13 
1.3102860807323790e+02 2.1469098521330405e+00 -5.4383509436147351e-13 
1.3020654376537519e+02 1.2413869600820133e+00 -2.3484921315802508e-14 
1.2631256190933965e+02 7.7408534605720369e-01 3.2117021896476394e-13 
1.1919400912147410e+02 7.9063637598161440e-01 1.9194741609915996e-13 

