# vtk DataFile Version 2.0

ASCII

DATASET UNSTRUCTURED_GRID

POINTS 33 float 

-5.0000000000000003e-02  3.3333333335000000e-02  1.4999999999999997e-01
-5.0000000000000003e-02  9.9999999985000018e-02  1.4999999999999999e-01
-5.0000000000000003e-02  1.6666666665000002e-01  1.4999999999999999e-01
-5.0000000000000003e-02  2.3333333334999998e-01  1.4999999999999999e-01
-5.0000000000000003e-02  2.9999999999999993e-01  1.4999999999999997e-01
-5.0000000000000003e-02  3.6666666665000003e-01  1.4999999999999999e-01
-5.0000000000000003e-02  4.3333333335000002e-01  1.4999999999999999e-01
-5.0000000000000003e-02  5.0000000000000000e-01  1.4999999999999997e-01
-5.0000000000000003e-02  5.6666666664999987e-01  1.4999999999999999e-01
-5.0000000000000003e-02  6.3333333334999986e-01  1.4999999999999999e-01
-5.0000000000000003e-02  6.9999999999999984e-01  1.4999999999999997e-01
-5.0000000000000003e-02  7.6666666664999994e-01  1.4999999999999999e-01
-4.9999999999999996e-02  8.3333333334999982e-01  1.4999999999999999e-01
-5.0000000000000003e-02  8.9999999999999991e-01  1.4999999999999997e-01
-5.0000000000000003e-02  9.6666666664999990e-01  1.4999999999999999e-01
-3.3333333335000000e-02  9.9999999999999978e-01  1.4999999999999997e-01
0.0000000000000000e+00  1.0000000000000000e+00  1.4999999999999997e-01
3.3333333335000007e-02  1.0000000000000000e+00  1.4999999999999999e-01
5.0000000000000003e-02  3.3333333335000000e-02  1.4999999999999999e-01
5.0000000000000003e-02  9.9999999985000004e-02  1.4999999999999999e-01
5.0000000000000003e-02  1.6666666664999999e-01  1.4999999999999999e-01
5.0000000000000003e-02  2.3333333334999998e-01  1.4999999999999999e-01
5.0000000000000003e-02  2.9999999999999993e-01  1.4999999999999997e-01
5.0000000000000003e-02  3.6666666665000003e-01  1.4999999999999999e-01
5.0000000000000003e-02  4.3333333334999991e-01  1.4999999999999999e-01
5.0000000000000003e-02  5.0000000000000000e-01  1.4999999999999997e-01
5.0000000000000003e-02  5.6666666664999987e-01  1.4999999999999999e-01
5.0000000000000003e-02  6.3333333334999997e-01  1.4999999999999999e-01
5.0000000000000003e-02  6.9999999999999984e-01  1.4999999999999997e-01
5.0000000000000003e-02  7.6666666664999994e-01  1.4999999999999999e-01
5.0000000000000003e-02  8.3333333334999993e-01  1.4999999999999999e-01
5.0000000000000010e-02  8.9999999999999991e-01  1.4999999999999999e-01
5.0000000000000003e-02  9.6666666664999990e-01  1.4999999999999999e-01

CELLS 0 0


CELL_TYPES 0


POINT_DATA 33

VECTORS VertexNormals float

0.0000000000000000e+00 0.0000000000000000e+00 0.0000000000000000e+00 
0.0000000000000000e+00 0.0000000000000000e+00 0.0000000000000000e+00 
0.0000000000000000e+00 0.0000000000000000e+00 0.0000000000000000e+00 
0.0000000000000000e+00 0.0000000000000000e+00 0.0000000000000000e+00 
0.0000000000000000e+00 0.0000000000000000e+00 0.0000000000000000e+00 
0.0000000000000000e+00 0.0000000000000000e+00 0.0000000000000000e+00 
0.0000000000000000e+00 0.0000000000000000e+00 0.0000000000000000e+00 
0.0000000000000000e+00 0.0000000000000000e+00 0.0000000000000000e+00 
0.0000000000000000e+00 0.0000000000000000e+00 0.0000000000000000e+00 
0.0000000000000000e+00 0.0000000000000000e+00 0.0000000000000000e+00 
0.0000000000000000e+00 0.0000000000000000e+00 0.0000000000000000e+00 
0.0000000000000000e+00 0.0000000000000000e+00 0.0000000000000000e+00 
0.0000000000000000e+00 0.0000000000000000e+00 0.0000000000000000e+00 
0.0000000000000000e+00 0.0000000000000000e+00 0.0000000000000000e+00 
0.0000000000000000e+00 0.0000000000000000e+00 0.0000000000000000e+00 
0.0000000000000000e+00 0.0000000000000000e+00 0.0000000000000000e+00 
0.0000000000000000e+00 0.0000000000000000e+00 0.0000000000000000e+00 
0.0000000000000000e+00 0.0000000000000000e+00 0.0000000000000000e+00 
0.0000000000000000e+00 0.0000000000000000e+00 0.0000000000000000e+00 
0.0000000000000000e+00 0.0000000000000000e+00 0.0000000000000000e+00 
0.0000000000000000e+00 0.0000000000000000e+00 0.0000000000000000e+00 
0.0000000000000000e+00 0.0000000000000000e+00 0.0000000000000000e+00 
0.0000000000000000e+00 0.0000000000000000e+00 0.0000000000000000e+00 
0.0000000000000000e+00 0.0000000000000000e+00 0.0000000000000000e+00 
0.0000000000000000e+00 0.0000000000000000e+00 0.0000000000000000e+00 
0.0000000000000000e+00 0.0000000000000000e+00 0.0000000000000000e+00 
0.0000000000000000e+00 0.0000000000000000e+00 0.0000000000000000e+00 
0.0000000000000000e+00 0.0000000000000000e+00 0.0000000000000000e+00 
0.0000000000000000e+00 0.0000000000000000e+00 0.0000000000000000e+00 
0.0000000000000000e+00 0.0000000000000000e+00 0.0000000000000000e+00 
0.0000000000000000e+00 0.0000000000000000e+00 0.0000000000000000e+00 
0.0000000000000000e+00 0.0000000000000000e+00 0.0000000000000000e+00 
0.0000000000000000e+00 0.0000000000000000e+00 0.0000000000000000e+00 

VECTORS Stress float
1.4339952786180658e+02 -4.5914766172002190e+00 -2.9729832627038407e-13 
1.4331047684271610e+02 -1.0872020732360470e+01 -2.3593556782612859e-13 
1.4289405932612775e+02 -1.6783412951471600e+01 -3.4478908292012265e-13 
1.4162350308993175e+02 -2.1911633672695711e+01 -1.4659633946926764e-12 
1.3922647385843044e+02 -2.6000435616228394e+01 -1.0599037676988523e-12 
1.3562698247703361e+02 -2.9231819099358102e+01 3.3295913558417133e-13 
1.3069721206748937e+02 -3.2227976444967382e+01 1.3979487520555566e-13 
1.2495160712006427e+02 -3.4206191545800991e+01 -3.9783351982525886e-13 
1.1884230548437803e+02 -3.4941321404772019e+01 5.7543534563172296e-13 
1.1261518162203049e+02 -3.4128976731332486e+01 7.7462194936433997e-13 
1.0587479436821984e+02 -3.1906744065439735e+01 -1.1223779149101201e-12 
9.7520785981591871e+01 -2.9186426829415726e+01 -1.7399415951173874e-12 
8.6719945466372920e+01 -2.6004231896751591e+01 -1.3650794295648614e-12 
7.2662535788811724e+01 -2.1515208777966851e+01 -6.9545351631423062e-13 
5.1671224224239019e+01 -1.5021042114068395e+01 3.8319354787216374e-14 
1.8858027246003523e+01 6.3011362482742314e+01 1.7224971322301450e-16 
1.2752933685693273e+01 4.2954034905144923e+01 3.4180365888157092e-19 
7.8572469887166987e+00 2.6901070179593599e+01 -7.9778415678718779e-17 
-1.4201601276983007e+01 5.0354155031726411e-01 -8.9295906819019020e-13 
-1.4356354419707611e+01 1.1811442213272669e+00 -8.8354947177697658e-13 
-1.4191064493458827e+01 1.8012187872055172e+00 4.3853506833319276e-13 
-1.3571128059571743e+01 2.2777898670185501e+00 1.4625112246907591e-12 
-1.2444758242130083e+01 2.5125672745127505e+00 1.0402046315320122e-12 
-1.0844271911981725e+01 2.5493647812009379e+00 1.5632205859951771e-13 
-8.8512056482668005e+00 2.4056195594757841e+00 6.1955376838355270e-13 
-6.3422890199786464e+00 1.9400245900199486e+00 1.1321133291043125e-12 
-3.2655453113174304e+00 1.1453127019205698e+00 -2.2667240647548367e-13 
2.1379682301685379e-01 1.1447679310899503e-01 -9.0420603837859584e-13 
3.6701308976143978e+00 -9.1723856626649636e-01 3.1171929044890787e-13 
6.6927447747004631e+00 -1.8117933935875477e+00 1.1074009855841349e-12 
9.1895179747078366e+00 -2.5625752110933600e+00 1.4755065338029092e-12 
1.1127906706018424e+01 -3.1135725746943215e+00 -5.0838125946268763e-13 
1.2498402276121887e+01 -3.4729244293920067e+00 -1.2998500552063463e-12 

