# vtk DataFile Version 2.0

ASCII

DATASET UNSTRUCTURED_GRID

POINTS 33 float 

-5.0000000000000003e-02  3.3333333335000000e-02  1.4999999999999997e-01
-5.0000000000000003e-02  9.9999999985000018e-02  1.4999999999999999e-01
-5.0000000000000003e-02  1.6666666665000002e-01  1.4999999999999999e-01
-5.0000000000000003e-02  2.3333333334999998e-01  1.4999999999999999e-01
-5.0000000000000003e-02  2.9999999999999993e-01  1.4999999999999997e-01
-5.0000000000000003e-02  3.6666666665000003e-01  1.4999999999999999e-01
-5.0000000000000003e-02  4.3333333335000002e-01  1.4999999999999999e-01
-5.0000000000000003e-02  5.0000000000000000e-01  1.4999999999999997e-01
-5.0000000000000003e-02  5.6666666664999987e-01  1.4999999999999999e-01
-5.0000000000000003e-02  6.3333333334999986e-01  1.4999999999999999e-01
-5.0000000000000003e-02  6.9999999999999984e-01  1.4999999999999997e-01
-5.0000000000000003e-02  7.6666666664999994e-01  1.4999999999999999e-01
-4.9999999999999996e-02  8.3333333334999982e-01  1.4999999999999999e-01
-5.0000000000000003e-02  8.9999999999999991e-01  1.4999999999999997e-01
-5.0000000000000003e-02  9.6666666664999990e-01  1.4999999999999999e-01
-3.3333333335000000e-02  9.9999999999999978e-01  1.4999999999999997e-01
0.0000000000000000e+00  1.0000000000000000e+00  1.4999999999999997e-01
3.3333333335000007e-02  1.0000000000000000e+00  1.4999999999999999e-01
5.0000000000000003e-02  3.3333333335000000e-02  1.4999999999999999e-01
5.0000000000000003e-02  9.9999999985000004e-02  1.4999999999999999e-01
5.0000000000000003e-02  1.6666666664999999e-01  1.4999999999999999e-01
5.0000000000000003e-02  2.3333333334999998e-01  1.4999999999999999e-01
5.0000000000000003e-02  2.9999999999999993e-01  1.4999999999999997e-01
5.0000000000000003e-02  3.6666666665000003e-01  1.4999999999999999e-01
5.0000000000000003e-02  4.3333333334999991e-01  1.4999999999999999e-01
5.0000000000000003e-02  5.0000000000000000e-01  1.4999999999999997e-01
5.0000000000000003e-02  5.6666666664999987e-01  1.4999999999999999e-01
5.0000000000000003e-02  6.3333333334999997e-01  1.4999999999999999e-01
5.0000000000000003e-02  6.9999999999999984e-01  1.4999999999999997e-01
5.0000000000000003e-02  7.6666666664999994e-01  1.4999999999999999e-01
5.0000000000000003e-02  8.3333333334999993e-01  1.4999999999999999e-01
5.0000000000000010e-02  8.9999999999999991e-01  1.4999999999999999e-01
5.0000000000000003e-02  9.6666666664999990e-01  1.4999999999999999e-01

CELLS 0 0


CELL_TYPES 0


POINT_DATA 33

VECTORS VertexNormals float

0.0000000000000000e+00 0.0000000000000000e+00 0.0000000000000000e+00 
0.0000000000000000e+00 0.0000000000000000e+00 0.0000000000000000e+00 
0.0000000000000000e+00 0.0000000000000000e+00 0.0000000000000000e+00 
0.0000000000000000e+00 0.0000000000000000e+00 0.0000000000000000e+00 
0.0000000000000000e+00 0.0000000000000000e+00 0.0000000000000000e+00 
0.0000000000000000e+00 0.0000000000000000e+00 0.0000000000000000e+00 
0.0000000000000000e+00 0.0000000000000000e+00 0.0000000000000000e+00 
0.0000000000000000e+00 0.0000000000000000e+00 0.0000000000000000e+00 
0.0000000000000000e+00 0.0000000000000000e+00 0.0000000000000000e+00 
0.0000000000000000e+00 0.0000000000000000e+00 0.0000000000000000e+00 
0.0000000000000000e+00 0.0000000000000000e+00 0.0000000000000000e+00 
0.0000000000000000e+00 0.0000000000000000e+00 0.0000000000000000e+00 
0.0000000000000000e+00 0.0000000000000000e+00 0.0000000000000000e+00 
0.0000000000000000e+00 0.0000000000000000e+00 0.0000000000000000e+00 
0.0000000000000000e+00 0.0000000000000000e+00 0.0000000000000000e+00 
0.0000000000000000e+00 0.0000000000000000e+00 0.0000000000000000e+00 
0.0000000000000000e+00 0.0000000000000000e+00 0.0000000000000000e+00 
0.0000000000000000e+00 0.0000000000000000e+00 0.0000000000000000e+00 
0.0000000000000000e+00 0.0000000000000000e+00 0.0000000000000000e+00 
0.0000000000000000e+00 0.0000000000000000e+00 0.0000000000000000e+00 
0.0000000000000000e+00 0.0000000000000000e+00 0.0000000000000000e+00 
0.0000000000000000e+00 0.0000000000000000e+00 0.0000000000000000e+00 
0.0000000000000000e+00 0.0000000000000000e+00 0.0000000000000000e+00 
0.0000000000000000e+00 0.0000000000000000e+00 0.0000000000000000e+00 
0.0000000000000000e+00 0.0000000000000000e+00 0.0000000000000000e+00 
0.0000000000000000e+00 0.0000000000000000e+00 0.0000000000000000e+00 
0.0000000000000000e+00 0.0000000000000000e+00 0.0000000000000000e+00 
0.0000000000000000e+00 0.0000000000000000e+00 0.0000000000000000e+00 
0.0000000000000000e+00 0.0000000000000000e+00 0.0000000000000000e+00 
0.0000000000000000e+00 0.0000000000000000e+00 0.0000000000000000e+00 
0.0000000000000000e+00 0.0000000000000000e+00 0.0000000000000000e+00 
0.0000000000000000e+00 0.0000000000000000e+00 0.0000000000000000e+00 
0.0000000000000000e+00 0.0000000000000000e+00 0.0000000000000000e+00 

VECTORS Stress float
2.1686215440222955e+02 -1.0952594267405463e+01 -5.1486322520414492e-13 
2.1575542901644778e+02 -2.6077417917179911e+01 -5.1875800511972642e-13 
2.1307043330441306e+02 -4.1214944487112525e+01 -1.0052767582935912e-12 
2.0829830082909103e+02 -5.4199750964903998e+01 -1.7934675451773470e-12 
2.0181276041103573e+02 -6.4842224939005959e+01 -7.9453336981678428e-13 
1.9417164181855509e+02 -7.3242089322292770e+01 -1.1937959098392805e-12 
1.8619815096597063e+02 -7.9053116558960966e+01 -6.5496705810348153e-13 
1.7841465123586971e+02 -8.2493859005411792e+01 8.8834841111574135e-13 
1.7078487554267122e+02 -8.4269653174502452e+01 -6.5269594970204950e-13 
1.6299082423023674e+02 -8.5066961795775597e+01 -1.0033834119193302e-12 
1.5587001848200933e+02 -8.4020553123005541e+01 5.5668554208153407e-13 
1.4935610561162289e+02 -8.1177834757366440e+01 1.5995738658307813e-12 
1.4228952849745809e+02 -7.6840506085434242e+01 1.8535938231370218e-12 
1.3296023421290755e+02 -7.0848812076174241e+01 7.3675976976329398e-13 
1.1842992521249127e+02 -6.2716401255845788e+01 -6.4259086178219919e-14 
-1.3344214000607678e+01 -2.5247008839612903e+01 -2.8420107987862960e-17 
-2.5107249062036157e+01 -4.6913314147738674e+01 1.3678344315621882e-19 
-3.3209941529872026e+01 -6.1872621856343862e+01 8.2580972849953896e-17 
-9.5773195780273824e+01 5.5801782849450898e+00 -1.1609190347679835e-12 
-9.5169636780593422e+01 1.2958051889249829e+01 -1.0707355100553355e-12 
-9.4184626986609729e+01 2.0334324232868521e+01 9.0432233944028588e-13 
-9.3115984710888668e+01 2.6785278911108037e+01 2.0258979437466411e-12 
-9.1884570964330919e+01 3.2337015896418620e+01 1.2242263431063925e-12 
-9.0608618794251527e+01 3.6999942171104713e+01 -1.0609570687231985e-12 
-8.9456028589552972e+01 4.0543907317805768e+01 -1.9271042547884966e-12 
-8.8367922349424575e+01 4.3129061216855519e+01 -8.2002962380196740e-13 
-8.7153378257746397e+01 4.5069822286125635e+01 1.2911356739412514e-12 
-8.5739930485142878e+01 4.6308061267684764e+01 1.2614750434455278e-12 
-8.4287032752617193e+01 4.6218640851429072e+01 -8.7791032432540940e-13 
-8.2601164573296586e+01 4.5196306933478724e+01 -1.6271583869082738e-12 
-8.0732357259351090e+01 4.3675333143113306e+01 -2.0274802194984745e-12 
-7.8817630259071393e+01 4.2167374623873016e+01 -1.1528169708510668e-12 
-7.6815905948420792e+01 4.1155666342974982e+01 2.0057118215444743e-13 

