# vtk DataFile Version 2.0

ASCII

DATASET UNSTRUCTURED_GRID

POINTS 237 float 

-5.0000000000000003e-02  0.0000000000000000e+00  0.0000000000000000e+00
-5.0000000000000003e-02  5.5555555555555552e-02  0.0000000000000000e+00
-5.0000000000000003e-02  0.0000000000000000e+00  2.9999999999999999e-01
-5.0000000000000003e-02  5.5555555555555552e-02  2.9999999999999999e-01
-5.0000000000000003e-02  2.7777777777777776e-02  0.0000000000000000e+00
-5.0000000000000003e-02  2.7777777777777776e-02  2.9999999999999999e-01
-5.0000000000000003e-02  0.0000000000000000e+00  1.4999999999999999e-01
-5.0000000000000003e-02  5.5555555555555552e-02  1.4999999999999999e-01
-5.0000000000000003e-02  2.7777777777777776e-02  1.4999999999999999e-01
5.0000000000000003e-02  0.0000000000000000e+00  0.0000000000000000e+00
5.0000000000000003e-02  5.5555555555555552e-02  0.0000000000000000e+00
5.0000000000000003e-02  0.0000000000000000e+00  2.9999999999999999e-01
5.0000000000000003e-02  5.5555555555555552e-02  2.9999999999999999e-01
5.0000000000000003e-02  2.7777777777777776e-02  0.0000000000000000e+00
5.0000000000000003e-02  2.7777777777777776e-02  2.9999999999999999e-01
5.0000000000000003e-02  0.0000000000000000e+00  1.4999999999999999e-01
5.0000000000000003e-02  5.5555555555555552e-02  1.4999999999999999e-01
5.0000000000000003e-02  2.7777777777777776e-02  1.4999999999999999e-01
-5.0000000000000003e-02  1.1111111111111110e-01  0.0000000000000000e+00
-5.0000000000000003e-02  1.1111111111111110e-01  2.9999999999999999e-01
-5.0000000000000003e-02  8.3333333333333329e-02  0.0000000000000000e+00
-5.0000000000000003e-02  8.3333333333333329e-02  2.9999999999999999e-01
-5.0000000000000003e-02  1.1111111111111110e-01  1.4999999999999999e-01
-5.0000000000000003e-02  8.3333333333333329e-02  1.4999999999999999e-01
5.0000000000000003e-02  1.1111111111111110e-01  0.0000000000000000e+00
5.0000000000000003e-02  1.1111111111111110e-01  2.9999999999999999e-01
5.0000000000000003e-02  8.3333333333333329e-02  0.0000000000000000e+00
5.0000000000000003e-02  8.3333333333333329e-02  2.9999999999999999e-01
5.0000000000000003e-02  1.1111111111111110e-01  1.4999999999999999e-01
5.0000000000000003e-02  8.3333333333333329e-02  1.4999999999999999e-01
-5.0000000000000003e-02  1.6666666666666666e-01  0.0000000000000000e+00
-5.0000000000000003e-02  1.6666666666666666e-01  2.9999999999999999e-01
-5.0000000000000003e-02  1.3888888888888890e-01  0.0000000000000000e+00
-5.0000000000000003e-02  1.3888888888888890e-01  2.9999999999999999e-01
-5.0000000000000003e-02  1.6666666666666666e-01  1.4999999999999999e-01
-5.0000000000000003e-02  1.3888888888888890e-01  1.4999999999999999e-01
5.0000000000000003e-02  1.6666666666666666e-01  0.0000000000000000e+00
5.0000000000000003e-02  1.6666666666666666e-01  2.9999999999999999e-01
5.0000000000000003e-02  1.3888888888888890e-01  0.0000000000000000e+00
5.0000000000000003e-02  1.3888888888888890e-01  2.9999999999999999e-01
5.0000000000000003e-02  1.6666666666666666e-01  1.4999999999999999e-01
5.0000000000000003e-02  1.3888888888888890e-01  1.4999999999999999e-01
-5.0000000000000003e-02  2.2222222222222221e-01  0.0000000000000000e+00
-5.0000000000000003e-02  2.2222222222222221e-01  2.9999999999999999e-01
-5.0000000000000003e-02  1.9444444444444442e-01  0.0000000000000000e+00
-5.0000000000000003e-02  1.9444444444444442e-01  2.9999999999999999e-01
-5.0000000000000003e-02  2.2222222222222221e-01  1.4999999999999999e-01
-5.0000000000000003e-02  1.9444444444444442e-01  1.4999999999999999e-01
5.0000000000000003e-02  2.2222222222222221e-01  0.0000000000000000e+00
5.0000000000000003e-02  2.2222222222222221e-01  2.9999999999999999e-01
5.0000000000000003e-02  1.9444444444444442e-01  0.0000000000000000e+00
5.0000000000000003e-02  1.9444444444444442e-01  2.9999999999999999e-01
5.0000000000000003e-02  2.2222222222222221e-01  1.4999999999999999e-01
5.0000000000000003e-02  1.9444444444444442e-01  1.4999999999999999e-01
-5.0000000000000003e-02  2.7777777777777779e-01  0.0000000000000000e+00
-5.0000000000000003e-02  2.7777777777777779e-01  2.9999999999999999e-01
-5.0000000000000003e-02  2.5000000000000000e-01  0.0000000000000000e+00
-5.0000000000000003e-02  2.5000000000000000e-01  2.9999999999999999e-01
-5.0000000000000003e-02  2.7777777777777779e-01  1.4999999999999999e-01
-5.0000000000000003e-02  2.5000000000000000e-01  1.4999999999999999e-01
5.0000000000000003e-02  2.7777777777777779e-01  0.0000000000000000e+00
5.0000000000000003e-02  2.7777777777777779e-01  2.9999999999999999e-01
5.0000000000000003e-02  2.5000000000000000e-01  0.0000000000000000e+00
5.0000000000000003e-02  2.5000000000000000e-01  2.9999999999999999e-01
5.0000000000000003e-02  2.7777777777777779e-01  1.4999999999999999e-01
5.0000000000000003e-02  2.5000000000000000e-01  1.4999999999999999e-01
-5.0000000000000003e-02  3.3333333333333331e-01  0.0000000000000000e+00
-5.0000000000000003e-02  3.3333333333333331e-01  2.9999999999999999e-01
-5.0000000000000003e-02  3.0555555555555558e-01  0.0000000000000000e+00
-5.0000000000000003e-02  3.0555555555555558e-01  2.9999999999999999e-01
-5.0000000000000003e-02  3.3333333333333331e-01  1.4999999999999999e-01
-5.0000000000000003e-02  3.0555555555555558e-01  1.4999999999999999e-01
5.0000000000000003e-02  3.3333333333333331e-01  0.0000000000000000e+00
5.0000000000000003e-02  3.3333333333333331e-01  2.9999999999999999e-01
5.0000000000000003e-02  3.0555555555555558e-01  0.0000000000000000e+00
5.0000000000000003e-02  3.0555555555555558e-01  2.9999999999999999e-01
5.0000000000000003e-02  3.3333333333333331e-01  1.4999999999999999e-01
5.0000000000000003e-02  3.0555555555555558e-01  1.4999999999999999e-01
-5.0000000000000003e-02  3.8888888888888884e-01  0.0000000000000000e+00
-5.0000000000000003e-02  3.8888888888888884e-01  2.9999999999999999e-01
-5.0000000000000003e-02  3.6111111111111105e-01  0.0000000000000000e+00
-5.0000000000000003e-02  3.6111111111111105e-01  2.9999999999999999e-01
-5.0000000000000003e-02  3.8888888888888884e-01  1.4999999999999999e-01
-5.0000000000000003e-02  3.6111111111111105e-01  1.4999999999999999e-01
5.0000000000000003e-02  3.8888888888888884e-01  0.0000000000000000e+00
5.0000000000000003e-02  3.8888888888888884e-01  2.9999999999999999e-01
5.0000000000000003e-02  3.6111111111111105e-01  0.0000000000000000e+00
5.0000000000000003e-02  3.6111111111111105e-01  2.9999999999999999e-01
5.0000000000000003e-02  3.8888888888888884e-01  1.4999999999999999e-01
5.0000000000000003e-02  3.6111111111111105e-01  1.4999999999999999e-01
-5.0000000000000003e-02  4.4444444444444442e-01  0.0000000000000000e+00
-5.0000000000000003e-02  4.4444444444444442e-01  2.9999999999999999e-01
-5.0000000000000003e-02  4.1666666666666663e-01  0.0000000000000000e+00
-5.0000000000000003e-02  4.1666666666666663e-01  2.9999999999999999e-01
-5.0000000000000003e-02  4.4444444444444442e-01  1.4999999999999999e-01
-5.0000000000000003e-02  4.1666666666666663e-01  1.4999999999999999e-01
5.0000000000000003e-02  4.4444444444444442e-01  0.0000000000000000e+00
5.0000000000000003e-02  4.4444444444444442e-01  2.9999999999999999e-01
5.0000000000000003e-02  4.1666666666666663e-01  0.0000000000000000e+00
5.0000000000000003e-02  4.1666666666666663e-01  2.9999999999999999e-01
5.0000000000000003e-02  4.4444444444444442e-01  1.4999999999999999e-01
5.0000000000000003e-02  4.1666666666666663e-01  1.4999999999999999e-01
-5.0000000000000003e-02  5.0000000000000000e-01  0.0000000000000000e+00
-5.0000000000000003e-02  5.0000000000000000e-01  2.9999999999999999e-01
-5.0000000000000003e-02  4.7222222222222221e-01  0.0000000000000000e+00
-5.0000000000000003e-02  4.7222222222222221e-01  2.9999999999999999e-01
-5.0000000000000003e-02  5.0000000000000000e-01  1.4999999999999999e-01
-5.0000000000000003e-02  4.7222222222222221e-01  1.4999999999999999e-01
5.0000000000000003e-02  5.0000000000000000e-01  0.0000000000000000e+00
5.0000000000000003e-02  5.0000000000000000e-01  2.9999999999999999e-01
5.0000000000000003e-02  4.7222222222222221e-01  0.0000000000000000e+00
5.0000000000000003e-02  4.7222222222222221e-01  2.9999999999999999e-01
5.0000000000000003e-02  5.0000000000000000e-01  1.4999999999999999e-01
5.0000000000000003e-02  4.7222222222222221e-01  1.4999999999999999e-01
-5.0000000000000003e-02  5.5555555555555558e-01  0.0000000000000000e+00
-5.0000000000000003e-02  5.5555555555555558e-01  2.9999999999999999e-01
-5.0000000000000003e-02  5.2777777777777779e-01  0.0000000000000000e+00
-5.0000000000000003e-02  5.2777777777777779e-01  2.9999999999999999e-01
-5.0000000000000003e-02  5.5555555555555558e-01  1.4999999999999999e-01
-5.0000000000000003e-02  5.2777777777777779e-01  1.4999999999999999e-01
5.0000000000000003e-02  5.5555555555555558e-01  0.0000000000000000e+00
5.0000000000000003e-02  5.5555555555555558e-01  2.9999999999999999e-01
5.0000000000000003e-02  5.2777777777777779e-01  0.0000000000000000e+00
5.0000000000000003e-02  5.2777777777777779e-01  2.9999999999999999e-01
5.0000000000000003e-02  5.5555555555555558e-01  1.4999999999999999e-01
5.0000000000000003e-02  5.2777777777777779e-01  1.4999999999999999e-01
-5.0000000000000003e-02  6.1111111111111105e-01  0.0000000000000000e+00
-5.0000000000000003e-02  6.1111111111111105e-01  2.9999999999999999e-01
-5.0000000000000003e-02  5.8333333333333326e-01  0.0000000000000000e+00
-5.0000000000000003e-02  5.8333333333333326e-01  2.9999999999999999e-01
-5.0000000000000003e-02  6.1111111111111105e-01  1.4999999999999999e-01
-5.0000000000000003e-02  5.8333333333333326e-01  1.4999999999999999e-01
5.0000000000000003e-02  6.1111111111111105e-01  0.0000000000000000e+00
5.0000000000000003e-02  6.1111111111111105e-01  2.9999999999999999e-01
5.0000000000000003e-02  5.8333333333333326e-01  0.0000000000000000e+00
5.0000000000000003e-02  5.8333333333333326e-01  2.9999999999999999e-01
5.0000000000000003e-02  6.1111111111111105e-01  1.4999999999999999e-01
5.0000000000000003e-02  5.8333333333333326e-01  1.4999999999999999e-01
-5.0000000000000003e-02  6.6666666666666663e-01  0.0000000000000000e+00
-5.0000000000000003e-02  6.6666666666666663e-01  2.9999999999999999e-01
-5.0000000000000003e-02  6.3888888888888884e-01  0.0000000000000000e+00
-5.0000000000000003e-02  6.3888888888888884e-01  2.9999999999999999e-01
-5.0000000000000003e-02  6.6666666666666663e-01  1.4999999999999999e-01
-5.0000000000000003e-02  6.3888888888888884e-01  1.4999999999999999e-01
5.0000000000000003e-02  6.6666666666666663e-01  0.0000000000000000e+00
5.0000000000000003e-02  6.6666666666666663e-01  2.9999999999999999e-01
5.0000000000000003e-02  6.3888888888888884e-01  0.0000000000000000e+00
5.0000000000000003e-02  6.3888888888888884e-01  2.9999999999999999e-01
5.0000000000000003e-02  6.6666666666666663e-01  1.4999999999999999e-01
5.0000000000000003e-02  6.3888888888888884e-01  1.4999999999999999e-01
-5.0000000000000003e-02  7.2222222222222221e-01  0.0000000000000000e+00
-5.0000000000000003e-02  7.2222222222222221e-01  2.9999999999999999e-01
-5.0000000000000003e-02  6.9444444444444442e-01  0.0000000000000000e+00
-5.0000000000000003e-02  6.9444444444444442e-01  2.9999999999999999e-01
-5.0000000000000003e-02  7.2222222222222221e-01  1.4999999999999999e-01
-5.0000000000000003e-02  6.9444444444444442e-01  1.4999999999999999e-01
5.0000000000000003e-02  7.2222222222222221e-01  0.0000000000000000e+00
5.0000000000000003e-02  7.2222222222222221e-01  2.9999999999999999e-01
5.0000000000000003e-02  6.9444444444444442e-01  0.0000000000000000e+00
5.0000000000000003e-02  6.9444444444444442e-01  2.9999999999999999e-01
5.0000000000000003e-02  7.2222222222222221e-01  1.4999999999999999e-01
5.0000000000000003e-02  6.9444444444444442e-01  1.4999999999999999e-01
-5.0000000000000003e-02  7.7777777777777768e-01  0.0000000000000000e+00
-5.0000000000000003e-02  7.7777777777777768e-01  2.9999999999999999e-01
-5.0000000000000003e-02  7.5000000000000000e-01  0.0000000000000000e+00
-5.0000000000000003e-02  7.5000000000000000e-01  2.9999999999999999e-01
-5.0000000000000003e-02  7.7777777777777768e-01  1.4999999999999999e-01
-5.0000000000000003e-02  7.5000000000000000e-01  1.4999999999999999e-01
5.0000000000000003e-02  7.7777777777777768e-01  0.0000000000000000e+00
5.0000000000000003e-02  7.7777777777777768e-01  2.9999999999999999e-01
5.0000000000000003e-02  7.5000000000000000e-01  0.0000000000000000e+00
5.0000000000000003e-02  7.5000000000000000e-01  2.9999999999999999e-01
5.0000000000000003e-02  7.7777777777777768e-01  1.4999999999999999e-01
5.0000000000000003e-02  7.5000000000000000e-01  1.4999999999999999e-01
-5.0000000000000003e-02  8.3333333333333326e-01  0.0000000000000000e+00
-5.0000000000000003e-02  8.3333333333333326e-01  2.9999999999999999e-01
-5.0000000000000003e-02  8.0555555555555547e-01  0.0000000000000000e+00
-5.0000000000000003e-02  8.0555555555555547e-01  2.9999999999999999e-01
-5.0000000000000003e-02  8.3333333333333326e-01  1.4999999999999999e-01
-5.0000000000000003e-02  8.0555555555555536e-01  1.4999999999999999e-01
5.0000000000000003e-02  8.3333333333333326e-01  0.0000000000000000e+00
5.0000000000000003e-02  8.3333333333333326e-01  2.9999999999999999e-01
5.0000000000000003e-02  8.0555555555555547e-01  0.0000000000000000e+00
5.0000000000000003e-02  8.0555555555555547e-01  2.9999999999999999e-01
5.0000000000000003e-02  8.3333333333333326e-01  1.4999999999999999e-01
5.0000000000000003e-02  8.0555555555555536e-01  1.4999999999999999e-01
-5.0000000000000003e-02  8.8888888888888884e-01  0.0000000000000000e+00
-5.0000000000000003e-02  8.8888888888888884e-01  2.9999999999999999e-01
-5.0000000000000003e-02  8.6111111111111105e-01  0.0000000000000000e+00
-5.0000000000000003e-02  8.6111111111111105e-01  2.9999999999999999e-01
-5.0000000000000003e-02  8.8888888888888884e-01  1.4999999999999999e-01
-5.0000000000000003e-02  8.6111111111111105e-01  1.4999999999999999e-01
5.0000000000000003e-02  8.8888888888888884e-01  0.0000000000000000e+00
5.0000000000000003e-02  8.8888888888888884e-01  2.9999999999999999e-01
5.0000000000000003e-02  8.6111111111111105e-01  0.0000000000000000e+00
5.0000000000000003e-02  8.6111111111111105e-01  2.9999999999999999e-01
5.0000000000000003e-02  8.8888888888888884e-01  1.4999999999999999e-01
5.0000000000000003e-02  8.6111111111111105e-01  1.4999999999999999e-01
-5.0000000000000003e-02  9.4444444444444442e-01  0.0000000000000000e+00
-5.0000000000000003e-02  9.4444444444444442e-01  2.9999999999999999e-01
-5.0000000000000003e-02  9.1666666666666663e-01  0.0000000000000000e+00
-5.0000000000000003e-02  9.1666666666666663e-01  2.9999999999999999e-01
-5.0000000000000003e-02  9.4444444444444442e-01  1.4999999999999999e-01
-5.0000000000000003e-02  9.1666666666666674e-01  1.4999999999999999e-01
5.0000000000000003e-02  9.4444444444444442e-01  0.0000000000000000e+00
5.0000000000000003e-02  9.4444444444444442e-01  2.9999999999999999e-01
5.0000000000000003e-02  9.1666666666666663e-01  0.0000000000000000e+00
5.0000000000000003e-02  9.1666666666666663e-01  2.9999999999999999e-01
5.0000000000000003e-02  9.4444444444444442e-01  1.4999999999999999e-01
5.0000000000000003e-02  9.1666666666666674e-01  1.4999999999999999e-01
-5.0000000000000003e-02  1.0000000000000000e+00  0.0000000000000000e+00
-1.6666666666666670e-02  1.0000000000000000e+00  0.0000000000000000e+00
-5.0000000000000003e-02  1.0000000000000000e+00  2.9999999999999999e-01
-1.6666666666666670e-02  1.0000000000000000e+00  2.9999999999999999e-01
-5.0000000000000003e-02  9.7222222222222221e-01  0.0000000000000000e+00
-3.3333333333333340e-02  1.0000000000000000e+00  0.0000000000000000e+00
-5.0000000000000003e-02  9.7222222222222221e-01  2.9999999999999999e-01
-3.3333333333333340e-02  1.0000000000000000e+00  2.9999999999999999e-01
-5.0000000000000003e-02  1.0000000000000000e+00  1.4999999999999999e-01
-1.6666666666666670e-02  1.0000000000000000e+00  1.4999999999999999e-01
-5.0000000000000003e-02  9.7222222222222221e-01  1.4999999999999999e-01
-3.3333333333333340e-02  1.0000000000000000e+00  1.4999999999999999e-01
1.6666666666666663e-02  1.0000000000000000e+00  0.0000000000000000e+00
1.6666666666666663e-02  1.0000000000000000e+00  2.9999999999999999e-01
-3.4694469519536142e-18  1.0000000000000000e+00  0.0000000000000000e+00
-3.4694469519536142e-18  1.0000000000000000e+00  2.9999999999999999e-01
1.6666666666666663e-02  1.0000000000000000e+00  1.4999999999999999e-01
-3.4694469519536142e-18  1.0000000000000000e+00  1.4999999999999999e-01
5.0000000000000003e-02  1.0000000000000000e+00  0.0000000000000000e+00
5.0000000000000003e-02  1.0000000000000000e+00  2.9999999999999999e-01
5.0000000000000003e-02  9.7222222222222221e-01  0.0000000000000000e+00
3.3333333333333333e-02  1.0000000000000000e+00  0.0000000000000000e+00
5.0000000000000003e-02  9.7222222222222221e-01  2.9999999999999999e-01
3.3333333333333333e-02  1.0000000000000000e+00  2.9999999999999999e-01
5.0000000000000003e-02  1.0000000000000000e+00  1.4999999999999999e-01
5.0000000000000003e-02  9.7222222222222221e-01  1.4999999999999999e-01
3.3333333333333333e-02  1.0000000000000000e+00  1.4999999999999999e-01

CELLS 0 0


CELL_TYPES 0


POINT_DATA 237

VECTORS VertexNormals float

0.0000000000000000e+00 0.0000000000000000e+00 0.0000000000000000e+00 
0.0000000000000000e+00 0.0000000000000000e+00 0.0000000000000000e+00 
0.0000000000000000e+00 0.0000000000000000e+00 0.0000000000000000e+00 
0.0000000000000000e+00 0.0000000000000000e+00 0.0000000000000000e+00 
0.0000000000000000e+00 0.0000000000000000e+00 0.0000000000000000e+00 
0.0000000000000000e+00 0.0000000000000000e+00 0.0000000000000000e+00 
0.0000000000000000e+00 0.0000000000000000e+00 0.0000000000000000e+00 
0.0000000000000000e+00 0.0000000000000000e+00 0.0000000000000000e+00 
0.0000000000000000e+00 0.0000000000000000e+00 0.0000000000000000e+00 
0.0000000000000000e+00 0.0000000000000000e+00 0.0000000000000000e+00 
0.0000000000000000e+00 0.0000000000000000e+00 0.0000000000000000e+00 
0.0000000000000000e+00 0.0000000000000000e+00 0.0000000000000000e+00 
0.0000000000000000e+00 0.0000000000000000e+00 0.0000000000000000e+00 
0.0000000000000000e+00 0.0000000000000000e+00 0.0000000000000000e+00 
0.0000000000000000e+00 0.0000000000000000e+00 0.0000000000000000e+00 
0.0000000000000000e+00 0.0000000000000000e+00 0.0000000000000000e+00 
0.0000000000000000e+00 0.0000000000000000e+00 0.0000000000000000e+00 
0.0000000000000000e+00 0.0000000000000000e+00 0.0000000000000000e+00 
0.0000000000000000e+00 0.0000000000000000e+00 0.0000000000000000e+00 
0.0000000000000000e+00 0.0000000000000000e+00 0.0000000000000000e+00 
0.0000000000000000e+00 0.0000000000000000e+00 0.0000000000000000e+00 
0.0000000000000000e+00 0.0000000000000000e+00 0.0000000000000000e+00 
0.0000000000000000e+00 0.0000000000000000e+00 0.0000000000000000e+00 
0.0000000000000000e+00 0.0000000000000000e+00 0.0000000000000000e+00 
0.0000000000000000e+00 0.0000000000000000e+00 0.0000000000000000e+00 
0.0000000000000000e+00 0.0000000000000000e+00 0.0000000000000000e+00 
0.0000000000000000e+00 0.0000000000000000e+00 0.0000000000000000e+00 
0.0000000000000000e+00 0.0000000000000000e+00 0.0000000000000000e+00 
0.0000000000000000e+00 0.0000000000000000e+00 0.0000000000000000e+00 
0.0000000000000000e+00 0.0000000000000000e+00 0.0000000000000000e+00 
0.0000000000000000e+00 0.0000000000000000e+00 0.0000000000000000e+00 
0.0000000000000000e+00 0.0000000000000000e+00 0.0000000000000000e+00 
0.0000000000000000e+00 0.0000000000000000e+00 0.0000000000000000e+00 
0.0000000000000000e+00 0.0000000000000000e+00 0.0000000000000000e+00 
0.0000000000000000e+00 0.0000000000000000e+00 0.0000000000000000e+00 
0.0000000000000000e+00 0.0000000000000000e+00 0.0000000000000000e+00 
0.0000000000000000e+00 0.0000000000000000e+00 0.0000000000000000e+00 
0.0000000000000000e+00 0.0000000000000000e+00 0.0000000000000000e+00 
0.0000000000000000e+00 0.0000000000000000e+00 0.0000000000000000e+00 
0.0000000000000000e+00 0.0000000000000000e+00 0.0000000000000000e+00 
0.0000000000000000e+00 0.0000000000000000e+00 0.0000000000000000e+00 
0.0000000000000000e+00 0.0000000000000000e+00 0.0000000000000000e+00 
0.0000000000000000e+00 0.0000000000000000e+00 0.0000000000000000e+00 
0.0000000000000000e+00 0.0000000000000000e+00 0.0000000000000000e+00 
0.0000000000000000e+00 0.0000000000000000e+00 0.0000000000000000e+00 
0.0000000000000000e+00 0.0000000000000000e+00 0.0000000000000000e+00 
0.0000000000000000e+00 0.0000000000000000e+00 0.0000000000000000e+00 
0.0000000000000000e+00 0.0000000000000000e+00 0.0000000000000000e+00 
0.0000000000000000e+00 0.0000000000000000e+00 0.0000000000000000e+00 
0.0000000000000000e+00 0.0000000000000000e+00 0.0000000000000000e+00 
0.0000000000000000e+00 0.0000000000000000e+00 0.0000000000000000e+00 
0.0000000000000000e+00 0.0000000000000000e+00 0.0000000000000000e+00 
0.0000000000000000e+00 0.0000000000000000e+00 0.0000000000000000e+00 
0.0000000000000000e+00 0.0000000000000000e+00 0.0000000000000000e+00 
0.0000000000000000e+00 0.0000000000000000e+00 0.0000000000000000e+00 
0.0000000000000000e+00 0.0000000000000000e+00 0.0000000000000000e+00 
0.0000000000000000e+00 0.0000000000000000e+00 0.0000000000000000e+00 
0.0000000000000000e+00 0.0000000000000000e+00 0.0000000000000000e+00 
0.0000000000000000e+00 0.0000000000000000e+00 0.0000000000000000e+00 
0.0000000000000000e+00 0.0000000000000000e+00 0.0000000000000000e+00 
0.0000000000000000e+00 0.0000000000000000e+00 0.0000000000000000e+00 
0.0000000000000000e+00 0.0000000000000000e+00 0.0000000000000000e+00 
0.0000000000000000e+00 0.0000000000000000e+00 0.0000000000000000e+00 
0.0000000000000000e+00 0.0000000000000000e+00 0.0000000000000000e+00 
0.0000000000000000e+00 0.0000000000000000e+00 0.0000000000000000e+00 
0.0000000000000000e+00 0.0000000000000000e+00 0.0000000000000000e+00 
0.0000000000000000e+00 0.0000000000000000e+00 0.0000000000000000e+00 
0.0000000000000000e+00 0.0000000000000000e+00 0.0000000000000000e+00 
0.0000000000000000e+00 0.0000000000000000e+00 0.0000000000000000e+00 
0.0000000000000000e+00 0.0000000000000000e+00 0.0000000000000000e+00 
0.0000000000000000e+00 0.0000000000000000e+00 0.0000000000000000e+00 
0.0000000000000000e+00 0.0000000000000000e+00 0.0000000000000000e+00 
0.0000000000000000e+00 0.0000000000000000e+00 0.0000000000000000e+00 
0.0000000000000000e+00 0.0000000000000000e+00 0.0000000000000000e+00 
0.0000000000000000e+00 0.0000000000000000e+00 0.0000000000000000e+00 
0.0000000000000000e+00 0.0000000000000000e+00 0.0000000000000000e+00 
0.0000000000000000e+00 0.0000000000000000e+00 0.0000000000000000e+00 
0.0000000000000000e+00 0.0000000000000000e+00 0.0000000000000000e+00 
0.0000000000000000e+00 0.0000000000000000e+00 0.0000000000000000e+00 
0.0000000000000000e+00 0.0000000000000000e+00 0.0000000000000000e+00 
0.0000000000000000e+00 0.0000000000000000e+00 0.0000000000000000e+00 
0.0000000000000000e+00 0.0000000000000000e+00 0.0000000000000000e+00 
0.0000000000000000e+00 0.0000000000000000e+00 0.0000000000000000e+00 
0.0000000000000000e+00 0.0000000000000000e+00 0.0000000000000000e+00 
0.0000000000000000e+00 0.0000000000000000e+00 0.0000000000000000e+00 
0.0000000000000000e+00 0.0000000000000000e+00 0.0000000000000000e+00 
0.0000000000000000e+00 0.0000000000000000e+00 0.0000000000000000e+00 
0.0000000000000000e+00 0.0000000000000000e+00 0.0000000000000000e+00 
0.0000000000000000e+00 0.0000000000000000e+00 0.0000000000000000e+00 
0.0000000000000000e+00 0.0000000000000000e+00 0.0000000000000000e+00 
0.0000000000000000e+00 0.0000000000000000e+00 0.0000000000000000e+00 
0.0000000000000000e+00 0.0000000000000000e+00 0.0000000000000000e+00 
0.0000000000000000e+00 0.0000000000000000e+00 0.0000000000000000e+00 
0.0000000000000000e+00 0.0000000000000000e+00 0.0000000000000000e+00 
0.0000000000000000e+00 0.0000000000000000e+00 0.0000000000000000e+00 
0.0000000000000000e+00 0.0000000000000000e+00 0.0000000000000000e+00 
0.0000000000000000e+00 0.0000000000000000e+00 0.0000000000000000e+00 
0.0000000000000000e+00 0.0000000000000000e+00 0.0000000000000000e+00 
0.0000000000000000e+00 0.0000000000000000e+00 0.0000000000000000e+00 
0.0000000000000000e+00 0.0000000000000000e+00 0.0000000000000000e+00 
0.0000000000000000e+00 0.0000000000000000e+00 0.0000000000000000e+00 
0.0000000000000000e+00 0.0000000000000000e+00 0.0000000000000000e+00 
0.0000000000000000e+00 0.0000000000000000e+00 0.0000000000000000e+00 
0.0000000000000000e+00 0.0000000000000000e+00 0.0000000000000000e+00 
0.0000000000000000e+00 0.0000000000000000e+00 0.0000000000000000e+00 
0.0000000000000000e+00 0.0000000000000000e+00 0.0000000000000000e+00 
0.0000000000000000e+00 0.0000000000000000e+00 0.0000000000000000e+00 
0.0000000000000000e+00 0.0000000000000000e+00 0.0000000000000000e+00 
0.0000000000000000e+00 0.0000000000000000e+00 0.0000000000000000e+00 
0.0000000000000000e+00 0.0000000000000000e+00 0.0000000000000000e+00 
0.0000000000000000e+00 0.0000000000000000e+00 0.0000000000000000e+00 
0.0000000000000000e+00 0.0000000000000000e+00 0.0000000000000000e+00 
0.0000000000000000e+00 0.0000000000000000e+00 0.0000000000000000e+00 
0.0000000000000000e+00 0.0000000000000000e+00 0.0000000000000000e+00 
0.0000000000000000e+00 0.0000000000000000e+00 0.0000000000000000e+00 
0.0000000000000000e+00 0.0000000000000000e+00 0.0000000000000000e+00 
0.0000000000000000e+00 0.0000000000000000e+00 0.0000000000000000e+00 
0.0000000000000000e+00 0.0000000000000000e+00 0.0000000000000000e+00 
0.0000000000000000e+00 0.0000000000000000e+00 0.0000000000000000e+00 
0.0000000000000000e+00 0.0000000000000000e+00 0.0000000000000000e+00 
0.0000000000000000e+00 0.0000000000000000e+00 0.0000000000000000e+00 
0.0000000000000000e+00 0.0000000000000000e+00 0.0000000000000000e+00 
0.0000000000000000e+00 0.0000000000000000e+00 0.0000000000000000e+00 
0.0000000000000000e+00 0.0000000000000000e+00 0.0000000000000000e+00 
0.0000000000000000e+00 0.0000000000000000e+00 0.0000000000000000e+00 
0.0000000000000000e+00 0.0000000000000000e+00 0.0000000000000000e+00 
0.0000000000000000e+00 0.0000000000000000e+00 0.0000000000000000e+00 
0.0000000000000000e+00 0.0000000000000000e+00 0.0000000000000000e+00 
0.0000000000000000e+00 0.0000000000000000e+00 0.0000000000000000e+00 
0.0000000000000000e+00 0.0000000000000000e+00 0.0000000000000000e+00 
0.0000000000000000e+00 0.0000000000000000e+00 0.0000000000000000e+00 
0.0000000000000000e+00 0.0000000000000000e+00 0.0000000000000000e+00 
0.0000000000000000e+00 0.0000000000000000e+00 0.0000000000000000e+00 
0.0000000000000000e+00 0.0000000000000000e+00 0.0000000000000000e+00 
0.0000000000000000e+00 0.0000000000000000e+00 0.0000000000000000e+00 
0.0000000000000000e+00 0.0000000000000000e+00 0.0000000000000000e+00 
0.0000000000000000e+00 0.0000000000000000e+00 0.0000000000000000e+00 
0.0000000000000000e+00 0.0000000000000000e+00 0.0000000000000000e+00 
0.0000000000000000e+00 0.0000000000000000e+00 0.0000000000000000e+00 
0.0000000000000000e+00 0.0000000000000000e+00 0.0000000000000000e+00 
0.0000000000000000e+00 0.0000000000000000e+00 0.0000000000000000e+00 
0.0000000000000000e+00 0.0000000000000000e+00 0.0000000000000000e+00 
0.0000000000000000e+00 0.0000000000000000e+00 0.0000000000000000e+00 
0.0000000000000000e+00 0.0000000000000000e+00 0.0000000000000000e+00 
0.0000000000000000e+00 0.0000000000000000e+00 0.0000000000000000e+00 
0.0000000000000000e+00 0.0000000000000000e+00 0.0000000000000000e+00 
0.0000000000000000e+00 0.0000000000000000e+00 0.0000000000000000e+00 
0.0000000000000000e+00 0.0000000000000000e+00 0.0000000000000000e+00 
0.0000000000000000e+00 0.0000000000000000e+00 0.0000000000000000e+00 
0.0000000000000000e+00 0.0000000000000000e+00 0.0000000000000000e+00 
0.0000000000000000e+00 0.0000000000000000e+00 0.0000000000000000e+00 
0.0000000000000000e+00 0.0000000000000000e+00 0.0000000000000000e+00 
0.0000000000000000e+00 0.0000000000000000e+00 0.0000000000000000e+00 
0.0000000000000000e+00 0.0000000000000000e+00 0.0000000000000000e+00 
0.0000000000000000e+00 0.0000000000000000e+00 0.0000000000000000e+00 
0.0000000000000000e+00 0.0000000000000000e+00 0.0000000000000000e+00 
0.0000000000000000e+00 0.0000000000000000e+00 0.0000000000000000e+00 
0.0000000000000000e+00 0.0000000000000000e+00 0.0000000000000000e+00 
0.0000000000000000e+00 0.0000000000000000e+00 0.0000000000000000e+00 
0.0000000000000000e+00 0.0000000000000000e+00 0.0000000000000000e+00 
0.0000000000000000e+00 0.0000000000000000e+00 0.0000000000000000e+00 
0.0000000000000000e+00 0.0000000000000000e+00 0.0000000000000000e+00 
0.0000000000000000e+00 0.0000000000000000e+00 0.0000000000000000e+00 
0.0000000000000000e+00 0.0000000000000000e+00 0.0000000000000000e+00 
0.0000000000000000e+00 0.0000000000000000e+00 0.0000000000000000e+00 
0.0000000000000000e+00 0.0000000000000000e+00 0.0000000000000000e+00 
0.0000000000000000e+00 0.0000000000000000e+00 0.0000000000000000e+00 
0.0000000000000000e+00 0.0000000000000000e+00 0.0000000000000000e+00 
0.0000000000000000e+00 0.0000000000000000e+00 0.0000000000000000e+00 
0.0000000000000000e+00 0.0000000000000000e+00 0.0000000000000000e+00 
0.0000000000000000e+00 0.0000000000000000e+00 0.0000000000000000e+00 
0.0000000000000000e+00 0.0000000000000000e+00 0.0000000000000000e+00 
0.0000000000000000e+00 0.0000000000000000e+00 0.0000000000000000e+00 
0.0000000000000000e+00 0.0000000000000000e+00 0.0000000000000000e+00 
0.0000000000000000e+00 0.0000000000000000e+00 0.0000000000000000e+00 
0.0000000000000000e+00 0.0000000000000000e+00 0.0000000000000000e+00 
0.0000000000000000e+00 0.0000000000000000e+00 0.0000000000000000e+00 
0.0000000000000000e+00 0.0000000000000000e+00 0.0000000000000000e+00 
0.0000000000000000e+00 0.0000000000000000e+00 0.0000000000000000e+00 
0.0000000000000000e+00 0.0000000000000000e+00 0.0000000000000000e+00 
0.0000000000000000e+00 0.0000000000000000e+00 0.0000000000000000e+00 
0.0000000000000000e+00 0.0000000000000000e+00 0.0000000000000000e+00 
0.0000000000000000e+00 0.0000000000000000e+00 0.0000000000000000e+00 
0.0000000000000000e+00 0.0000000000000000e+00 0.0000000000000000e+00 
0.0000000000000000e+00 0.0000000000000000e+00 0.0000000000000000e+00 
0.0000000000000000e+00 0.0000000000000000e+00 0.0000000000000000e+00 
0.0000000000000000e+00 0.0000000000000000e+00 0.0000000000000000e+00 
0.0000000000000000e+00 0.0000000000000000e+00 0.0000000000000000e+00 
0.0000000000000000e+00 0.0000000000000000e+00 0.0000000000000000e+00 
0.0000000000000000e+00 0.0000000000000000e+00 0.0000000000000000e+00 
0.0000000000000000e+00 0.0000000000000000e+00 0.0000000000000000e+00 
0.0000000000000000e+00 0.0000000000000000e+00 0.0000000000000000e+00 
0.0000000000000000e+00 0.0000000000000000e+00 0.0000000000000000e+00 
0.0000000000000000e+00 0.0000000000000000e+00 0.0000000000000000e+00 
0.0000000000000000e+00 0.0000000000000000e+00 0.0000000000000000e+00 
0.0000000000000000e+00 0.0000000000000000e+00 0.0000000000000000e+00 
0.0000000000000000e+00 0.0000000000000000e+00 0.0000000000000000e+00 
0.0000000000000000e+00 0.0000000000000000e+00 0.0000000000000000e+00 
0.0000000000000000e+00 0.0000000000000000e+00 0.0000000000000000e+00 
0.0000000000000000e+00 0.0000000000000000e+00 0.0000000000000000e+00 
0.0000000000000000e+00 0.0000000000000000e+00 0.0000000000000000e+00 
0.0000000000000000e+00 0.0000000000000000e+00 0.0000000000000000e+00 
0.0000000000000000e+00 0.0000000000000000e+00 0.0000000000000000e+00 
0.0000000000000000e+00 0.0000000000000000e+00 0.0000000000000000e+00 
0.0000000000000000e+00 0.0000000000000000e+00 0.0000000000000000e+00 
0.0000000000000000e+00 0.0000000000000000e+00 0.0000000000000000e+00 
0.0000000000000000e+00 0.0000000000000000e+00 0.0000000000000000e+00 
0.0000000000000000e+00 0.0000000000000000e+00 0.0000000000000000e+00 
0.0000000000000000e+00 0.0000000000000000e+00 0.0000000000000000e+00 
0.0000000000000000e+00 0.0000000000000000e+00 0.0000000000000000e+00 
0.0000000000000000e+00 0.0000000000000000e+00 0.0000000000000000e+00 
0.0000000000000000e+00 0.0000000000000000e+00 0.0000000000000000e+00 
0.0000000000000000e+00 0.0000000000000000e+00 0.0000000000000000e+00 
0.0000000000000000e+00 0.0000000000000000e+00 0.0000000000000000e+00 
0.0000000000000000e+00 0.0000000000000000e+00 0.0000000000000000e+00 
0.0000000000000000e+00 0.0000000000000000e+00 0.0000000000000000e+00 
0.0000000000000000e+00 0.0000000000000000e+00 0.0000000000000000e+00 
0.0000000000000000e+00 0.0000000000000000e+00 0.0000000000000000e+00 
0.0000000000000000e+00 0.0000000000000000e+00 0.0000000000000000e+00 
0.0000000000000000e+00 0.0000000000000000e+00 0.0000000000000000e+00 
0.0000000000000000e+00 0.0000000000000000e+00 0.0000000000000000e+00 
0.0000000000000000e+00 0.0000000000000000e+00 0.0000000000000000e+00 
0.0000000000000000e+00 0.0000000000000000e+00 0.0000000000000000e+00 
0.0000000000000000e+00 0.0000000000000000e+00 0.0000000000000000e+00 
0.0000000000000000e+00 0.0000000000000000e+00 0.0000000000000000e+00 
0.0000000000000000e+00 0.0000000000000000e+00 0.0000000000000000e+00 
0.0000000000000000e+00 0.0000000000000000e+00 0.0000000000000000e+00 
0.0000000000000000e+00 0.0000000000000000e+00 0.0000000000000000e+00 
0.0000000000000000e+00 0.0000000000000000e+00 0.0000000000000000e+00 
0.0000000000000000e+00 0.0000000000000000e+00 0.0000000000000000e+00 
0.0000000000000000e+00 0.0000000000000000e+00 0.0000000000000000e+00 
0.0000000000000000e+00 0.0000000000000000e+00 0.0000000000000000e+00 
0.0000000000000000e+00 0.0000000000000000e+00 0.0000000000000000e+00 
0.0000000000000000e+00 0.0000000000000000e+00 0.0000000000000000e+00 
0.0000000000000000e+00 0.0000000000000000e+00 0.0000000000000000e+00 
0.0000000000000000e+00 0.0000000000000000e+00 0.0000000000000000e+00 
0.0000000000000000e+00 0.0000000000000000e+00 0.0000000000000000e+00 

VECTORS Displacement float
0.0000000000000000e+00 0.0000000000000000e+00 0.0000000000000000e+00 
1.6565652662830052e-03 2.0467232351535055e-03 0.0000000000000000e+00 
0.0000000000000000e+00 0.0000000000000000e+00 0.0000000000000000e+00 
1.6565674902404418e-03 2.0467329321686200e-03 0.0000000000000000e+00 
6.9048549552714982e-04 1.0528387222993969e-03 0.0000000000000000e+00 
6.9048037011823862e-04 1.0528439826643053e-03 0.0000000000000000e+00 
0.0000000000000000e+00 0.0000000000000000e+00 0.0000000000000000e+00 
1.6565753913803907e-03 2.0467215999670210e-03 3.5111370541286531e-09 
6.9048817994024007e-04 1.0528377440773551e-03 -1.5780671739800921e-09 
0.0000000000000000e+00 0.0000000000000000e+00 0.0000000000000000e+00 
1.7838025656084487e-03 -2.2048186696002584e-03 0.0000000000000000e+00 
0.0000000000000000e+00 0.0000000000000000e+00 0.0000000000000000e+00 
1.7837943465874228e-03 -2.2048302634665347e-03 0.0000000000000000e+00 
7.6932537541222340e-04 -1.1565943315122737e-03 0.0000000000000000e+00 
7.6931538719957971e-04 -1.1565989425719545e-03 0.0000000000000000e+00 
0.0000000000000000e+00 0.0000000000000000e+00 0.0000000000000000e+00 
1.7838053064921043e-03 -2.2048164901663347e-03 5.7220918831476110e-10 
7.6932180813326409e-04 -1.1565980869279434e-03 1.2347037358591004e-10 
5.1996862436710350e-03 3.9670626345447869e-03 0.0000000000000000e+00 
5.1996925287829659e-03 3.9670648456579111e-03 0.0000000000000000e+00 
3.1611032117130626e-03 3.0210770159355181e-03 0.0000000000000000e+00 
3.1611023817793068e-03 3.0210906177965233e-03 0.0000000000000000e+00 
5.1996919284650975e-03 3.9670672121851769e-03 4.6990133035387454e-09 
3.1611057497046018e-03 3.0210784945914415e-03 1.2219520229496704e-09 
5.2645206782279182e-03 -4.2295504272416651e-03 0.0000000000000000e+00 
5.2645047011809325e-03 -4.2295494453423975e-03 0.0000000000000000e+00 
3.2648297215489472e-03 -3.2134664983873044e-03 0.0000000000000000e+00 
3.2648270512853333e-03 -3.2134694369189312e-03 0.0000000000000000e+00 
5.2645173468367206e-03 -4.2295467114070850e-03 1.3053387072417776e-09 
3.2648302004719340e-03 -3.2134619606720071e-03 -1.3970099839240477e-09 
1.0971949011577688e-02 5.7316183843821311e-03 0.0000000000000000e+00 
1.0971959813742358e-02 5.7316200661073997e-03 0.0000000000000000e+00 
7.8225357848387411e-03 4.8790371503195339e-03 0.0000000000000000e+00 
7.8225297779938550e-03 4.8790500205254349e-03 0.0000000000000000e+00 
1.0971948245725702e-02 5.7316277080484267e-03 3.7202609305774229e-09 
7.8225289314924305e-03 4.8790394443874322e-03 2.6947051245688522e-09 
1.1109271980832489e-02 -6.2372826645387489e-03 0.0000000000000000e+00 
1.1109263158803857e-02 -6.2372917673282806e-03 0.0000000000000000e+00 
7.9132662529986676e-03 -5.2599945064171335e-03 0.0000000000000000e+00 
7.9132558158346335e-03 -5.2600144212170971e-03 0.0000000000000000e+00 
1.1109262640863541e-02 -6.2372902465096889e-03 2.5339035728047942e-09 
7.9132656608428692e-03 -5.2600020618036696e-03 -2.6547851552966469e-09 
1.8751441865714362e-02 7.1674076232160220e-03 0.0000000000000000e+00 
1.8751455225237863e-02 7.1673960942272071e-03 0.0000000000000000e+00 
1.4631551057024350e-02 6.4963972641461469e-03 0.0000000000000000e+00 
1.4631563063257304e-02 6.4963996305556215e-03 0.0000000000000000e+00 
1.8751449075626821e-02 7.1674014325196767e-03 2.2303170467111424e-09 
1.4631561103758507e-02 6.4963988296020386e-03 -6.2771109646032049e-10 
1.8822291738349033e-02 -7.9157441485181133e-03 0.0000000000000000e+00 
1.8822288351023814e-02 -7.9157478545079200e-03 0.0000000000000000e+00 
1.4758285061897785e-02 -7.1219763530409978e-03 0.0000000000000000e+00 
1.4758290872899066e-02 -7.1219915000226078e-03 0.0000000000000000e+00 
1.8822286362042646e-02 -7.9157392713293008e-03 4.4820518073896627e-09 
1.4758294051597141e-02 -7.1219817374663938e-03 8.1015185090641853e-10 
2.7931379274064826e-02 8.3803567179884068e-03 0.0000000000000000e+00 
2.7931385726497518e-02 8.3803662685550499e-03 0.0000000000000000e+00 
2.3194067985925736e-02 7.7712503157648348e-03 0.0000000000000000e+00 
2.3194063345281252e-02 7.7712488418966996e-03 0.0000000000000000e+00 
2.7931388396071136e-02 8.3803589340874351e-03 1.5001427988991796e-09 
2.3194068057857561e-02 7.7712521321299860e-03 -3.3006205490114731e-09 
2.8047154403367802e-02 -9.3597528347693238e-03 0.0000000000000000e+00 
2.8047140380586248e-02 -9.3597583253553253e-03 0.0000000000000000e+00 
2.3258660826641492e-02 -8.6472744735731129e-03 0.0000000000000000e+00 
2.3258655528140298e-02 -8.6472856837510083e-03 0.0000000000000000e+00 
2.8047148778427552e-02 -9.3597560107229472e-03 5.7026267638154870e-09 
2.3258658871653355e-02 -8.6472805562024663e-03 1.6132885055533228e-09 
3.8631211473837246e-02 9.6079591557484915e-03 0.0000000000000000e+00 
3.8631220713429879e-02 9.6079579533224820e-03 0.0000000000000000e+00 
3.3080788235075063e-02 9.0057271168298616e-03 0.0000000000000000e+00 
3.3080798378935176e-02 9.0057352135504143e-03 0.0000000000000000e+00 
3.8631214014840876e-02 9.6079625527770943e-03 2.5787364183162386e-09 
3.3080789845049176e-02 9.0057298915722957e-03 1.4079656837349440e-09 
3.8712289251133757e-02 -1.0742671359873567e-02 0.0000000000000000e+00 
3.8712287297515635e-02 -1.0742671403628768e-02 0.0000000000000000e+00 
3.3209859619637315e-02 -1.0052904885573623e-02 0.0000000000000000e+00 
3.3209855569496169e-02 -1.0052917048359197e-02 0.0000000000000000e+00 
3.8712286209251608e-02 -1.0742667043195819e-02 5.7277812149548305e-09 
3.3209869546625082e-02 -1.0052913873527525e-02 4.0126573923346770e-09 
5.0790396226393336e-02 1.0639330409583748e-02 0.0000000000000000e+00 
5.0790420500759284e-02 1.0639330952321030e-02 0.0000000000000000e+00 
4.4574710245231054e-02 1.0144434386938003e-02 0.0000000000000000e+00 
4.4574713742535729e-02 1.0144443477380461e-02 0.0000000000000000e+00 
5.0790405694706470e-02 1.0639337310279846e-02 4.3621038922094464e-09 
4.4574711402242881e-02 1.0144440510536980e-02 -3.3398724356046423e-10 
5.0921932791302305e-02 -1.1966013019822957e-02 0.0000000000000000e+00 
5.0921933449638156e-02 -1.1966014046978706e-02 0.0000000000000000e+00 
4.4642489206957479e-02 -1.1396866551795774e-02 0.0000000000000000e+00 
4.4642487760681353e-02 -1.1396874935568010e-02 0.0000000000000000e+00 
5.0921936832092236e-02 -1.1966013654490985e-02 5.2652747792875706e-09 
4.4642494839946728e-02 -1.1396874021285728e-02 2.6933233770402416e-09 
6.3980833649745716e-02 1.1633976477842384e-02 0.0000000000000000e+00 
6.3980847061113691e-02 1.1633967775309919e-02 0.0000000000000000e+00 
5.7230455201489144e-02 1.1138616561908062e-02 0.0000000000000000e+00 
5.7230477332912949e-02 1.1138613386805708e-02 0.0000000000000000e+00 
6.3980842216739303e-02 1.1633974890778082e-02 3.3485885824596871e-09 
5.7230466129449362e-02 1.1138619283489522e-02 3.5881045466925169e-09 
6.4013568539597054e-02 -1.3013080799197965e-02 0.0000000000000000e+00 
6.4013568564413120e-02 -1.3013068940003879e-02 0.0000000000000000e+00 
5.7371418969569085e-02 -1.2474994609737371e-02 0.0000000000000000e+00 
5.7371427287089979e-02 -1.2474993557262514e-02 0.0000000000000000e+00 
6.4013565371823317e-02 -1.3013068057265965e-02 6.3990625105311044e-09 
5.7371432340080485e-02 -1.2474991079014874e-02 2.6756533077964269e-09 
7.8306162272828939e-02 1.2640048345864499e-02 0.0000000000000000e+00 
7.8306162932489848e-02 1.2640045427025046e-02 0.0000000000000000e+00 
7.1005413041194315e-02 1.2126522467917006e-02 0.0000000000000000e+00 
7.1005410667742352e-02 1.2126519698731160e-02 0.0000000000000000e+00 
7.8306160126587268e-02 1.2640058531218495e-02 1.5965375866819058e-09 
7.1005402845470966e-02 1.2126525115379908e-02 9.3813134923259576e-11 
7.8397612013316714e-02 -1.4203182041494398e-02 0.0000000000000000e+00 
7.8397583968411413e-02 -1.4203163072589675e-02 0.0000000000000000e+00 
7.1000491578632113e-02 -1.3616948583218833e-02 0.0000000000000000e+00 
7.1000484640075467e-02 -1.3616938272197017e-02 0.0000000000000000e+00 
7.8397605437432474e-02 -1.4203167259176853e-02 7.8068501274316039e-09 
7.1000494227826949e-02 -1.3616944453471492e-02 2.7535052127015561e-09 
9.3953497352039450e-02 1.3548375479261771e-02 0.0000000000000000e+00 
9.3953490500801831e-02 1.3548374012318228e-02 0.0000000000000000e+00 
8.5951958229255832e-02 1.3141864837707800e-02 0.0000000000000000e+00 
8.5951952356721970e-02 1.3141863573236132e-02 0.0000000000000000e+00 
9.3953497539214628e-02 1.3548365935828024e-02 2.9934757936785850e-09 
8.5951969469425515e-02 1.3141867956299265e-02 5.8423730951280143e-10 
9.4023458726299622e-02 -1.5093999194278798e-02 0.0000000000000000e+00 
9.4023431178056671e-02 -1.5093991209217790e-02 0.0000000000000000e+00 
8.6101115713191567e-02 -1.4694861048733951e-02 0.0000000000000000e+00 
8.6101089916023429e-02 -1.4694852290799049e-02 0.0000000000000000e+00 
9.4023444312454546e-02 -1.5093984622106614e-02 7.5951607025995452e-09 
8.6101110692572064e-02 -1.4694851490390556e-02 5.8973974798594664e-09 
1.1038217034413655e-01 1.3914530618081671e-02 0.0000000000000000e+00 
1.1038217972417574e-01 1.3914545836260478e-02 0.0000000000000000e+00 
1.0215791261246597e-01 1.3783205792881746e-02 0.0000000000000000e+00 
1.0215789887781422e-01 1.3783219043782732e-02 0.0000000000000000e+00 
1.1038216222889666e-01 1.3914539342718427e-02 5.9160003396375900e-09 
1.0215789017927035e-01 1.3783203913248620e-02 1.4160629722182835e-09 
1.1040979168538720e-01 -1.5607321666405613e-02 0.0000000000000000e+00 
1.1040978919844890e-01 -1.5607326809703243e-02 0.0000000000000000e+00 
1.0212325925810614e-01 -1.5398263708002166e-02 0.0000000000000000e+00 
1.0212324818681646e-01 -1.5398269852987270e-02 0.0000000000000000e+00 
1.1040979137799378e-01 -1.5607327762985696e-02 2.6510093393326595e-09 
1.0212325035565095e-01 -1.5398264123989158e-02 1.5866129605911330e-09 
1.2697902773780359e-01 1.4023979985793571e-02 0.0000000000000000e+00 
1.2697906296571371e-01 1.4023978381763072e-02 0.0000000000000000e+00 
1.1863801274493271e-01 1.4004282020121432e-02 0.0000000000000000e+00 
1.1863804239181883e-01 1.4004292529807342e-02 0.0000000000000000e+00 
1.2697904717693709e-01 1.4023974375660492e-02 6.9359363756125107e-09 
1.1863802580359629e-01 1.4004284883018123e-02 5.7313192972626461e-09 
1.2707615658836519e-01 -1.5610710637358919e-02 0.0000000000000000e+00 
1.2707616432434127e-01 -1.5610704595122808e-02 0.0000000000000000e+00 
1.1879164313986973e-01 -1.5662856565277005e-02 0.0000000000000000e+00 
1.1879165144276793e-01 -1.5662864254344818e-02 0.0000000000000000e+00 
1.2707615583796386e-01 -1.5610707298585335e-02 -3.5058116373249519e-10 
1.1879165902649091e-01 -1.5662864420097577e-02 -2.4434941472636066e-09 
1.4341712333397688e-01 1.3773342576253487e-02 0.0000000000000000e+00 
1.4341714060479041e-01 1.3773349749222669e-02 0.0000000000000000e+00 
1.3528227695683964e-01 1.3916047618776978e-02 0.0000000000000000e+00 
1.3528229095280403e-01 1.3916046765615767e-02 0.0000000000000000e+00 
1.4341712245979110e-01 1.3773352352872274e-02 2.8702949456898856e-09 
1.3528227533689668e-01 1.3916044620085007e-02 2.7833347208626804e-09 
1.4341622098861656e-01 -1.5404628820805732e-02 0.0000000000000000e+00 
1.4341621564014312e-01 -1.5404624259576848e-02 0.0000000000000000e+00 
1.3526776768477872e-01 -1.5517363249689917e-02 0.0000000000000000e+00 
1.3526777199043899e-01 -1.5517358115647802e-02 0.0000000000000000e+00 
1.4341623376376778e-01 -1.5404624469456819e-02 2.7881736729163017e-09 
1.3526777592649811e-01 -1.5517367547180024e-02 -2.1029216222911060e-09 
1.5947354024043359e-01 1.3673219014716402e-02 0.0000000000000000e+00 
1.5947356514569100e-01 1.3673214004086054e-02 0.0000000000000000e+00 
1.5142901408963050e-01 1.3701950502009220e-02 0.0000000000000000e+00 
1.5142903753236781e-01 1.3701955777176684e-02 0.0000000000000000e+00 
1.5947354917619350e-01 1.3673224455015717e-02 -2.6869124031735934e-10 
1.5142902242924050e-01 1.3701960845881329e-02 -5.1632245246478656e-10 
1.5953567343127256e-01 -1.5252819933045149e-02 0.0000000000000000e+00 
1.5953568297893408e-01 -1.5252823128305885e-02 0.0000000000000000e+00 
1.5149199707421854e-01 -1.5311319848180786e-02 0.0000000000000000e+00 
1.5149200388256134e-01 -1.5311325956628055e-02 0.0000000000000000e+00 
1.5953568506062071e-01 -1.5252809761996729e-02 4.1833326023766556e-09 
1.5149201984936847e-01 -1.5311316254670573e-02 8.1853135497216703e-10 
1.7552593983411863e-01 1.3511696314693469e-02 0.0000000000000000e+00 
1.7552594711588076e-01 1.3511690992784504e-02 0.0000000000000000e+00 
1.6756466667300812e-01 1.3602706225545543e-02 0.0000000000000000e+00 
1.6756466915883317e-01 1.3602701783153145e-02 0.0000000000000000e+00 
1.7552594276096234e-01 1.3511691057984623e-02 -1.3628979219880558e-09 
1.6756467084512372e-01 1.3602707149121811e-02 -3.0463422188794358e-09 
1.7553197283091437e-01 -1.5123371874278093e-02 0.0000000000000000e+00 
1.7553197386557490e-01 -1.5123367179596985e-02 0.0000000000000000e+00 
1.6756714794084962e-01 -1.5185915694396462e-02 0.0000000000000000e+00 
1.6756715927465110e-01 -1.5185916209656217e-02 0.0000000000000000e+00 
1.7553197449647195e-01 -1.5123362756501248e-02 2.4591836504827770e-09 
1.6756715463940147e-01 -1.5185908909811183e-02 3.3965696731099929e-10 
1.9129603112664006e-01 1.3487907054270842e-02 0.0000000000000000e+00 
1.9129603955643795e-01 1.3487898453038060e-02 0.0000000000000000e+00 
1.8339971080556333e-01 1.3484000381045219e-02 0.0000000000000000e+00 
1.8339972113881917e-01 1.3483992906498512e-02 0.0000000000000000e+00 
1.9129603081900010e-01 1.3487906743919567e-02 -3.3283561767826866e-09 
1.8339970604531100e-01 1.3483993811912256e-02 -3.2412666422185714e-09 
1.9140224717484561e-01 -1.5003278496705980e-02 0.0000000000000000e+00 
1.9140224925703150e-01 -1.5003267900720017e-02 0.0000000000000000e+00 
1.8347558841750936e-01 -1.5073030020174818e-02 0.0000000000000000e+00 
1.8347558784066975e-01 -1.5073023663134065e-02 0.0000000000000000e+00 
1.9140224998629377e-01 -1.5003273070135846e-02 2.8021517815494286e-10 
1.8347559120665874e-01 -1.5073026059520194e-02 -6.2872433429370362e-10 
2.0707870191716196e-01 1.3509198937248197e-02 0.0000000000000000e+00 
2.0707871791170251e-01 1.3509205069466188e-02 0.0000000000000000e+00 
1.9919630326932175e-01 1.3489981220580241e-02 0.0000000000000000e+00 
1.9919631006705157e-01 1.3489973533811863e-02 0.0000000000000000e+00 
2.0707871379623954e-01 1.3509210576006885e-02 1.3555422354850308e-10 
1.9919630640755970e-01 1.3489981906490823e-02 -2.3815074765763722e-09 
2.0707724258921903e-01 -1.4904035652272402e-02 0.0000000000000000e+00 
2.0707725895274182e-01 -1.4904040393323246e-02 0.0000000000000000e+00 
1.9924530004421734e-01 -1.4936944254811875e-02 0.0000000000000000e+00 
1.9924530686074904e-01 -1.4936942200434108e-02 0.0000000000000000e+00 
2.0707724432279470e-01 -1.4904036238465587e-02 -6.4505088299373554e-09 
1.9924530350245701e-01 -1.4936942637874656e-02 -3.5977671868568292e-09 
2.2288100982392603e-01 1.3576823406137674e-02 0.0000000000000000e+00 
2.2287577856669463e-01 4.0664730653679378e-03 0.0000000000000000e+00 
2.2288105384996604e-01 1.3576842043954145e-02 0.0000000000000000e+00 
2.2287581078124469e-01 4.0664673677104366e-03 0.0000000000000000e+00 
2.1496747805303551e-01 1.3548367920340251e-02 0.0000000000000000e+00 
2.2287710809553984e-01 8.8223784800631963e-03 0.0000000000000000e+00 
2.1496750134371800e-01 1.3548373667126880e-02 0.0000000000000000e+00 
2.2287714681944604e-01 8.8223820747572942e-03 0.0000000000000000e+00 
2.2288103807544041e-01 1.3576838009571839e-02 6.0685009912463572e-09 
2.2287580819496666e-01 4.0664806434366823e-03 1.9452024931996062e-09 
2.1496750602299519e-01 1.3548383731865002e-02 4.5838993936373740e-09 
2.2287713919939992e-01 8.8223929807461805e-03 4.9021765754694435e-09 
2.2287907582633221e-01 -5.4487698378434292e-03 0.0000000000000000e+00 
2.2287911188771775e-01 -5.4487756346530657e-03 0.0000000000000000e+00 
2.2287777265644965e-01 -6.9748488672581317e-04 0.0000000000000000e+00 
2.2287780453594280e-01 -6.9748587518193449e-04 0.0000000000000000e+00 
2.2287909572179021e-01 -5.4487721649026421e-03 -4.8756164347033504e-09 
2.2287779737040175e-01 -6.9748571765552840e-04 -6.9198350814254799e-11 
2.2288264438825925e-01 -1.4912959248379050e-02 0.0000000000000000e+00 
2.2288268275740913e-01 -1.4912985569473129e-02 0.0000000000000000e+00 
2.1497277226677253e-01 -1.4909122005536186e-02 0.0000000000000000e+00 
2.2288097236184307e-01 -1.0177923425185888e-02 0.0000000000000000e+00 
2.1497280119319501e-01 -1.4909139467600975e-02 0.0000000000000000e+00 
2.2288101142988781e-01 -1.0177933429458118e-02 0.0000000000000000e+00 
2.2288265655527059e-01 -1.4912966990981437e-02 -7.6723416045055325e-09 
2.1497277827204753e-01 -1.4909132106835928e-02 -9.0528308488287287e-09 
2.2288098442708668e-01 -1.0177927073771468e-02 -4.3268268935972712e-09 

VECTORS Stress float
0.0000000000000000e+00 0.0000000000000000e+00 0.0000000000000000e+00 
0.0000000000000000e+00 0.0000000000000000e+00 0.0000000000000000e+00 
0.0000000000000000e+00 0.0000000000000000e+00 0.0000000000000000e+00 
0.0000000000000000e+00 0.0000000000000000e+00 0.0000000000000000e+00 
0.0000000000000000e+00 0.0000000000000000e+00 0.0000000000000000e+00 
0.0000000000000000e+00 0.0000000000000000e+00 0.0000000000000000e+00 
0.0000000000000000e+00 0.0000000000000000e+00 0.0000000000000000e+00 
0.0000000000000000e+00 0.0000000000000000e+00 0.0000000000000000e+00 
0.0000000000000000e+00 0.0000000000000000e+00 0.0000000000000000e+00 
0.0000000000000000e+00 0.0000000000000000e+00 0.0000000000000000e+00 
0.0000000000000000e+00 0.0000000000000000e+00 0.0000000000000000e+00 
0.0000000000000000e+00 0.0000000000000000e+00 0.0000000000000000e+00 
0.0000000000000000e+00 0.0000000000000000e+00 0.0000000000000000e+00 
0.0000000000000000e+00 0.0000000000000000e+00 0.0000000000000000e+00 
0.0000000000000000e+00 0.0000000000000000e+00 0.0000000000000000e+00 
0.0000000000000000e+00 0.0000000000000000e+00 0.0000000000000000e+00 
0.0000000000000000e+00 0.0000000000000000e+00 0.0000000000000000e+00 
0.0000000000000000e+00 0.0000000000000000e+00 0.0000000000000000e+00 
0.0000000000000000e+00 0.0000000000000000e+00 0.0000000000000000e+00 
0.0000000000000000e+00 0.0000000000000000e+00 0.0000000000000000e+00 
0.0000000000000000e+00 0.0000000000000000e+00 0.0000000000000000e+00 
0.0000000000000000e+00 0.0000000000000000e+00 0.0000000000000000e+00 
0.0000000000000000e+00 0.0000000000000000e+00 0.0000000000000000e+00 
0.0000000000000000e+00 0.0000000000000000e+00 0.0000000000000000e+00 
0.0000000000000000e+00 0.0000000000000000e+00 0.0000000000000000e+00 
0.0000000000000000e+00 0.0000000000000000e+00 0.0000000000000000e+00 
0.0000000000000000e+00 0.0000000000000000e+00 0.0000000000000000e+00 
0.0000000000000000e+00 0.0000000000000000e+00 0.0000000000000000e+00 
0.0000000000000000e+00 0.0000000000000000e+00 0.0000000000000000e+00 
0.0000000000000000e+00 0.0000000000000000e+00 0.0000000000000000e+00 
0.0000000000000000e+00 0.0000000000000000e+00 0.0000000000000000e+00 
0.0000000000000000e+00 0.0000000000000000e+00 0.0000000000000000e+00 
0.0000000000000000e+00 0.0000000000000000e+00 0.0000000000000000e+00 
0.0000000000000000e+00 0.0000000000000000e+00 0.0000000000000000e+00 
0.0000000000000000e+00 0.0000000000000000e+00 0.0000000000000000e+00 
0.0000000000000000e+00 0.0000000000000000e+00 0.0000000000000000e+00 
0.0000000000000000e+00 0.0000000000000000e+00 0.0000000000000000e+00 
0.0000000000000000e+00 0.0000000000000000e+00 0.0000000000000000e+00 
0.0000000000000000e+00 0.0000000000000000e+00 0.0000000000000000e+00 
0.0000000000000000e+00 0.0000000000000000e+00 0.0000000000000000e+00 
0.0000000000000000e+00 0.0000000000000000e+00 0.0000000000000000e+00 
0.0000000000000000e+00 0.0000000000000000e+00 0.0000000000000000e+00 
0.0000000000000000e+00 0.0000000000000000e+00 0.0000000000000000e+00 
0.0000000000000000e+00 0.0000000000000000e+00 0.0000000000000000e+00 
0.0000000000000000e+00 0.0000000000000000e+00 0.0000000000000000e+00 
0.0000000000000000e+00 0.0000000000000000e+00 0.0000000000000000e+00 
0.0000000000000000e+00 0.0000000000000000e+00 0.0000000000000000e+00 
0.0000000000000000e+00 0.0000000000000000e+00 0.0000000000000000e+00 
0.0000000000000000e+00 0.0000000000000000e+00 0.0000000000000000e+00 
0.0000000000000000e+00 0.0000000000000000e+00 0.0000000000000000e+00 
0.0000000000000000e+00 0.0000000000000000e+00 0.0000000000000000e+00 
0.0000000000000000e+00 0.0000000000000000e+00 0.0000000000000000e+00 
0.0000000000000000e+00 0.0000000000000000e+00 0.0000000000000000e+00 
0.0000000000000000e+00 0.0000000000000000e+00 0.0000000000000000e+00 
0.0000000000000000e+00 0.0000000000000000e+00 0.0000000000000000e+00 
0.0000000000000000e+00 0.0000000000000000e+00 0.0000000000000000e+00 
0.0000000000000000e+00 0.0000000000000000e+00 0.0000000000000000e+00 
0.0000000000000000e+00 0.0000000000000000e+00 0.0000000000000000e+00 
0.0000000000000000e+00 0.0000000000000000e+00 0.0000000000000000e+00 
0.0000000000000000e+00 0.0000000000000000e+00 0.0000000000000000e+00 
0.0000000000000000e+00 0.0000000000000000e+00 0.0000000000000000e+00 
0.0000000000000000e+00 0.0000000000000000e+00 0.0000000000000000e+00 
0.0000000000000000e+00 0.0000000000000000e+00 0.0000000000000000e+00 
0.0000000000000000e+00 0.0000000000000000e+00 0.0000000000000000e+00 
0.0000000000000000e+00 0.0000000000000000e+00 0.0000000000000000e+00 
0.0000000000000000e+00 0.0000000000000000e+00 0.0000000000000000e+00 
0.0000000000000000e+00 0.0000000000000000e+00 0.0000000000000000e+00 
0.0000000000000000e+00 0.0000000000000000e+00 0.0000000000000000e+00 
0.0000000000000000e+00 0.0000000000000000e+00 0.0000000000000000e+00 
0.0000000000000000e+00 0.0000000000000000e+00 0.0000000000000000e+00 
0.0000000000000000e+00 0.0000000000000000e+00 0.0000000000000000e+00 
0.0000000000000000e+00 0.0000000000000000e+00 0.0000000000000000e+00 
0.0000000000000000e+00 0.0000000000000000e+00 0.0000000000000000e+00 
0.0000000000000000e+00 0.0000000000000000e+00 0.0000000000000000e+00 
0.0000000000000000e+00 0.0000000000000000e+00 0.0000000000000000e+00 
0.0000000000000000e+00 0.0000000000000000e+00 0.0000000000000000e+00 
0.0000000000000000e+00 0.0000000000000000e+00 0.0000000000000000e+00 
0.0000000000000000e+00 0.0000000000000000e+00 0.0000000000000000e+00 
0.0000000000000000e+00 0.0000000000000000e+00 0.0000000000000000e+00 
0.0000000000000000e+00 0.0000000000000000e+00 0.0000000000000000e+00 
0.0000000000000000e+00 0.0000000000000000e+00 0.0000000000000000e+00 
0.0000000000000000e+00 0.0000000000000000e+00 0.0000000000000000e+00 
0.0000000000000000e+00 0.0000000000000000e+00 0.0000000000000000e+00 
0.0000000000000000e+00 0.0000000000000000e+00 0.0000000000000000e+00 
0.0000000000000000e+00 0.0000000000000000e+00 0.0000000000000000e+00 
0.0000000000000000e+00 0.0000000000000000e+00 0.0000000000000000e+00 
0.0000000000000000e+00 0.0000000000000000e+00 0.0000000000000000e+00 
0.0000000000000000e+00 0.0000000000000000e+00 0.0000000000000000e+00 
0.0000000000000000e+00 0.0000000000000000e+00 0.0000000000000000e+00 
0.0000000000000000e+00 0.0000000000000000e+00 0.0000000000000000e+00 
0.0000000000000000e+00 0.0000000000000000e+00 0.0000000000000000e+00 
0.0000000000000000e+00 0.0000000000000000e+00 0.0000000000000000e+00 
0.0000000000000000e+00 0.0000000000000000e+00 0.0000000000000000e+00 
0.0000000000000000e+00 0.0000000000000000e+00 0.0000000000000000e+00 
0.0000000000000000e+00 0.0000000000000000e+00 0.0000000000000000e+00 
0.0000000000000000e+00 0.0000000000000000e+00 0.0000000000000000e+00 
0.0000000000000000e+00 0.0000000000000000e+00 0.0000000000000000e+00 
0.0000000000000000e+00 0.0000000000000000e+00 0.0000000000000000e+00 
0.0000000000000000e+00 0.0000000000000000e+00 0.0000000000000000e+00 
0.0000000000000000e+00 0.0000000000000000e+00 0.0000000000000000e+00 
0.0000000000000000e+00 0.0000000000000000e+00 0.0000000000000000e+00 
0.0000000000000000e+00 0.0000000000000000e+00 0.0000000000000000e+00 
0.0000000000000000e+00 0.0000000000000000e+00 0.0000000000000000e+00 
0.0000000000000000e+00 0.0000000000000000e+00 0.0000000000000000e+00 
0.0000000000000000e+00 0.0000000000000000e+00 0.0000000000000000e+00 
0.0000000000000000e+00 0.0000000000000000e+00 0.0000000000000000e+00 
0.0000000000000000e+00 0.0000000000000000e+00 0.0000000000000000e+00 
0.0000000000000000e+00 0.0000000000000000e+00 0.0000000000000000e+00 
0.0000000000000000e+00 0.0000000000000000e+00 0.0000000000000000e+00 
0.0000000000000000e+00 0.0000000000000000e+00 0.0000000000000000e+00 
0.0000000000000000e+00 0.0000000000000000e+00 0.0000000000000000e+00 
0.0000000000000000e+00 0.0000000000000000e+00 0.0000000000000000e+00 
0.0000000000000000e+00 0.0000000000000000e+00 0.0000000000000000e+00 
0.0000000000000000e+00 0.0000000000000000e+00 0.0000000000000000e+00 
0.0000000000000000e+00 0.0000000000000000e+00 0.0000000000000000e+00 
0.0000000000000000e+00 0.0000000000000000e+00 0.0000000000000000e+00 
0.0000000000000000e+00 0.0000000000000000e+00 0.0000000000000000e+00 
0.0000000000000000e+00 0.0000000000000000e+00 0.0000000000000000e+00 
0.0000000000000000e+00 0.0000000000000000e+00 0.0000000000000000e+00 
0.0000000000000000e+00 0.0000000000000000e+00 0.0000000000000000e+00 
0.0000000000000000e+00 0.0000000000000000e+00 0.0000000000000000e+00 
0.0000000000000000e+00 0.0000000000000000e+00 0.0000000000000000e+00 
0.0000000000000000e+00 0.0000000000000000e+00 0.0000000000000000e+00 
0.0000000000000000e+00 0.0000000000000000e+00 0.0000000000000000e+00 
0.0000000000000000e+00 0.0000000000000000e+00 0.0000000000000000e+00 
0.0000000000000000e+00 0.0000000000000000e+00 0.0000000000000000e+00 
0.0000000000000000e+00 0.0000000000000000e+00 0.0000000000000000e+00 
0.0000000000000000e+00 0.0000000000000000e+00 0.0000000000000000e+00 
0.0000000000000000e+00 0.0000000000000000e+00 0.0000000000000000e+00 
0.0000000000000000e+00 0.0000000000000000e+00 0.0000000000000000e+00 
0.0000000000000000e+00 0.0000000000000000e+00 0.0000000000000000e+00 
0.0000000000000000e+00 0.0000000000000000e+00 0.0000000000000000e+00 
0.0000000000000000e+00 0.0000000000000000e+00 0.0000000000000000e+00 
0.0000000000000000e+00 0.0000000000000000e+00 0.0000000000000000e+00 
0.0000000000000000e+00 0.0000000000000000e+00 0.0000000000000000e+00 
0.0000000000000000e+00 0.0000000000000000e+00 0.0000000000000000e+00 
0.0000000000000000e+00 0.0000000000000000e+00 0.0000000000000000e+00 
0.0000000000000000e+00 0.0000000000000000e+00 0.0000000000000000e+00 
0.0000000000000000e+00 0.0000000000000000e+00 0.0000000000000000e+00 
0.0000000000000000e+00 0.0000000000000000e+00 0.0000000000000000e+00 
0.0000000000000000e+00 0.0000000000000000e+00 0.0000000000000000e+00 
0.0000000000000000e+00 0.0000000000000000e+00 0.0000000000000000e+00 
0.0000000000000000e+00 0.0000000000000000e+00 0.0000000000000000e+00 
0.0000000000000000e+00 0.0000000000000000e+00 0.0000000000000000e+00 
0.0000000000000000e+00 0.0000000000000000e+00 0.0000000000000000e+00 
0.0000000000000000e+00 0.0000000000000000e+00 0.0000000000000000e+00 
0.0000000000000000e+00 0.0000000000000000e+00 0.0000000000000000e+00 
0.0000000000000000e+00 0.0000000000000000e+00 0.0000000000000000e+00 
0.0000000000000000e+00 0.0000000000000000e+00 0.0000000000000000e+00 
0.0000000000000000e+00 0.0000000000000000e+00 0.0000000000000000e+00 
0.0000000000000000e+00 0.0000000000000000e+00 0.0000000000000000e+00 
0.0000000000000000e+00 0.0000000000000000e+00 0.0000000000000000e+00 
0.0000000000000000e+00 0.0000000000000000e+00 0.0000000000000000e+00 
0.0000000000000000e+00 0.0000000000000000e+00 0.0000000000000000e+00 
0.0000000000000000e+00 0.0000000000000000e+00 0.0000000000000000e+00 
0.0000000000000000e+00 0.0000000000000000e+00 0.0000000000000000e+00 
0.0000000000000000e+00 0.0000000000000000e+00 0.0000000000000000e+00 
0.0000000000000000e+00 0.0000000000000000e+00 0.0000000000000000e+00 
0.0000000000000000e+00 0.0000000000000000e+00 0.0000000000000000e+00 
0.0000000000000000e+00 0.0000000000000000e+00 0.0000000000000000e+00 
0.0000000000000000e+00 0.0000000000000000e+00 0.0000000000000000e+00 
0.0000000000000000e+00 0.0000000000000000e+00 0.0000000000000000e+00 
0.0000000000000000e+00 0.0000000000000000e+00 0.0000000000000000e+00 
0.0000000000000000e+00 0.0000000000000000e+00 0.0000000000000000e+00 
0.0000000000000000e+00 0.0000000000000000e+00 0.0000000000000000e+00 
0.0000000000000000e+00 0.0000000000000000e+00 0.0000000000000000e+00 
0.0000000000000000e+00 0.0000000000000000e+00 0.0000000000000000e+00 
0.0000000000000000e+00 0.0000000000000000e+00 0.0000000000000000e+00 
0.0000000000000000e+00 0.0000000000000000e+00 0.0000000000000000e+00 
0.0000000000000000e+00 0.0000000000000000e+00 0.0000000000000000e+00 
0.0000000000000000e+00 0.0000000000000000e+00 0.0000000000000000e+00 
0.0000000000000000e+00 0.0000000000000000e+00 0.0000000000000000e+00 
0.0000000000000000e+00 0.0000000000000000e+00 0.0000000000000000e+00 
0.0000000000000000e+00 0.0000000000000000e+00 0.0000000000000000e+00 
0.0000000000000000e+00 0.0000000000000000e+00 0.0000000000000000e+00 
0.0000000000000000e+00 0.0000000000000000e+00 0.0000000000000000e+00 
0.0000000000000000e+00 0.0000000000000000e+00 0.0000000000000000e+00 
0.0000000000000000e+00 0.0000000000000000e+00 0.0000000000000000e+00 
0.0000000000000000e+00 0.0000000000000000e+00 0.0000000000000000e+00 
0.0000000000000000e+00 0.0000000000000000e+00 0.0000000000000000e+00 
0.0000000000000000e+00 0.0000000000000000e+00 0.0000000000000000e+00 
0.0000000000000000e+00 0.0000000000000000e+00 0.0000000000000000e+00 
0.0000000000000000e+00 0.0000000000000000e+00 0.0000000000000000e+00 
0.0000000000000000e+00 0.0000000000000000e+00 0.0000000000000000e+00 
0.0000000000000000e+00 0.0000000000000000e+00 0.0000000000000000e+00 
0.0000000000000000e+00 0.0000000000000000e+00 0.0000000000000000e+00 
0.0000000000000000e+00 0.0000000000000000e+00 0.0000000000000000e+00 
0.0000000000000000e+00 0.0000000000000000e+00 0.0000000000000000e+00 
0.0000000000000000e+00 0.0000000000000000e+00 0.0000000000000000e+00 
0.0000000000000000e+00 0.0000000000000000e+00 0.0000000000000000e+00 
0.0000000000000000e+00 0.0000000000000000e+00 0.0000000000000000e+00 
0.0000000000000000e+00 0.0000000000000000e+00 0.0000000000000000e+00 
0.0000000000000000e+00 0.0000000000000000e+00 0.0000000000000000e+00 
0.0000000000000000e+00 0.0000000000000000e+00 0.0000000000000000e+00 
0.0000000000000000e+00 0.0000000000000000e+00 0.0000000000000000e+00 
0.0000000000000000e+00 0.0000000000000000e+00 0.0000000000000000e+00 
0.0000000000000000e+00 0.0000000000000000e+00 0.0000000000000000e+00 
0.0000000000000000e+00 0.0000000000000000e+00 0.0000000000000000e+00 
0.0000000000000000e+00 0.0000000000000000e+00 0.0000000000000000e+00 
0.0000000000000000e+00 0.0000000000000000e+00 0.0000000000000000e+00 
0.0000000000000000e+00 0.0000000000000000e+00 0.0000000000000000e+00 
0.0000000000000000e+00 0.0000000000000000e+00 0.0000000000000000e+00 
0.0000000000000000e+00 0.0000000000000000e+00 0.0000000000000000e+00 
0.0000000000000000e+00 0.0000000000000000e+00 0.0000000000000000e+00 
0.0000000000000000e+00 0.0000000000000000e+00 0.0000000000000000e+00 
0.0000000000000000e+00 0.0000000000000000e+00 0.0000000000000000e+00 
0.0000000000000000e+00 0.0000000000000000e+00 0.0000000000000000e+00 
0.0000000000000000e+00 0.0000000000000000e+00 0.0000000000000000e+00 
0.0000000000000000e+00 0.0000000000000000e+00 0.0000000000000000e+00 
0.0000000000000000e+00 0.0000000000000000e+00 0.0000000000000000e+00 
0.0000000000000000e+00 0.0000000000000000e+00 0.0000000000000000e+00 
0.0000000000000000e+00 0.0000000000000000e+00 0.0000000000000000e+00 
0.0000000000000000e+00 0.0000000000000000e+00 0.0000000000000000e+00 
0.0000000000000000e+00 0.0000000000000000e+00 0.0000000000000000e+00 
0.0000000000000000e+00 0.0000000000000000e+00 0.0000000000000000e+00 
0.0000000000000000e+00 0.0000000000000000e+00 0.0000000000000000e+00 
0.0000000000000000e+00 0.0000000000000000e+00 0.0000000000000000e+00 
0.0000000000000000e+00 0.0000000000000000e+00 0.0000000000000000e+00 
0.0000000000000000e+00 0.0000000000000000e+00 0.0000000000000000e+00 
0.0000000000000000e+00 0.0000000000000000e+00 0.0000000000000000e+00 
0.0000000000000000e+00 0.0000000000000000e+00 0.0000000000000000e+00 
0.0000000000000000e+00 0.0000000000000000e+00 0.0000000000000000e+00 
0.0000000000000000e+00 0.0000000000000000e+00 0.0000000000000000e+00 
0.0000000000000000e+00 0.0000000000000000e+00 0.0000000000000000e+00 
0.0000000000000000e+00 0.0000000000000000e+00 0.0000000000000000e+00 
0.0000000000000000e+00 0.0000000000000000e+00 0.0000000000000000e+00 
0.0000000000000000e+00 0.0000000000000000e+00 0.0000000000000000e+00 
0.0000000000000000e+00 0.0000000000000000e+00 0.0000000000000000e+00 
0.0000000000000000e+00 0.0000000000000000e+00 0.0000000000000000e+00 
0.0000000000000000e+00 0.0000000000000000e+00 0.0000000000000000e+00 
0.0000000000000000e+00 0.0000000000000000e+00 0.0000000000000000e+00 
0.0000000000000000e+00 0.0000000000000000e+00 0.0000000000000000e+00 
0.0000000000000000e+00 0.0000000000000000e+00 0.0000000000000000e+00 
0.0000000000000000e+00 0.0000000000000000e+00 0.0000000000000000e+00 
0.0000000000000000e+00 0.0000000000000000e+00 0.0000000000000000e+00 
0.0000000000000000e+00 0.0000000000000000e+00 0.0000000000000000e+00 
0.0000000000000000e+00 0.0000000000000000e+00 0.0000000000000000e+00 

