# vtk DataFile Version 2.0

ASCII

DATASET UNSTRUCTURED_GRID

POINTS 237 float 

-5.0000000000000003e-02  0.0000000000000000e+00  0.0000000000000000e+00
-5.0000000000000003e-02  5.5555555555555552e-02  0.0000000000000000e+00
-5.0000000000000003e-02  0.0000000000000000e+00  2.9999999999999999e-01
-5.0000000000000003e-02  5.5555555555555552e-02  2.9999999999999999e-01
-5.0000000000000003e-02  2.7777777777777776e-02  0.0000000000000000e+00
-5.0000000000000003e-02  2.7777777777777776e-02  2.9999999999999999e-01
-5.0000000000000003e-02  0.0000000000000000e+00  1.4999999999999999e-01
-5.0000000000000003e-02  5.5555555555555552e-02  1.4999999999999999e-01
-5.0000000000000003e-02  2.7777777777777776e-02  1.4999999999999999e-01
5.0000000000000003e-02  0.0000000000000000e+00  0.0000000000000000e+00
5.0000000000000003e-02  5.5555555555555552e-02  0.0000000000000000e+00
5.0000000000000003e-02  0.0000000000000000e+00  2.9999999999999999e-01
5.0000000000000003e-02  5.5555555555555552e-02  2.9999999999999999e-01
5.0000000000000003e-02  2.7777777777777776e-02  0.0000000000000000e+00
5.0000000000000003e-02  2.7777777777777776e-02  2.9999999999999999e-01
5.0000000000000003e-02  0.0000000000000000e+00  1.4999999999999999e-01
5.0000000000000003e-02  5.5555555555555552e-02  1.4999999999999999e-01
5.0000000000000003e-02  2.7777777777777776e-02  1.4999999999999999e-01
-5.0000000000000003e-02  1.1111111111111110e-01  0.0000000000000000e+00
-5.0000000000000003e-02  1.1111111111111110e-01  2.9999999999999999e-01
-5.0000000000000003e-02  8.3333333333333329e-02  0.0000000000000000e+00
-5.0000000000000003e-02  8.3333333333333329e-02  2.9999999999999999e-01
-5.0000000000000003e-02  1.1111111111111110e-01  1.4999999999999999e-01
-5.0000000000000003e-02  8.3333333333333329e-02  1.4999999999999999e-01
5.0000000000000003e-02  1.1111111111111110e-01  0.0000000000000000e+00
5.0000000000000003e-02  1.1111111111111110e-01  2.9999999999999999e-01
5.0000000000000003e-02  8.3333333333333329e-02  0.0000000000000000e+00
5.0000000000000003e-02  8.3333333333333329e-02  2.9999999999999999e-01
5.0000000000000003e-02  1.1111111111111110e-01  1.4999999999999999e-01
5.0000000000000003e-02  8.3333333333333329e-02  1.4999999999999999e-01
-5.0000000000000003e-02  1.6666666666666666e-01  0.0000000000000000e+00
-5.0000000000000003e-02  1.6666666666666666e-01  2.9999999999999999e-01
-5.0000000000000003e-02  1.3888888888888890e-01  0.0000000000000000e+00
-5.0000000000000003e-02  1.3888888888888890e-01  2.9999999999999999e-01
-5.0000000000000003e-02  1.6666666666666666e-01  1.4999999999999999e-01
-5.0000000000000003e-02  1.3888888888888890e-01  1.4999999999999999e-01
5.0000000000000003e-02  1.6666666666666666e-01  0.0000000000000000e+00
5.0000000000000003e-02  1.6666666666666666e-01  2.9999999999999999e-01
5.0000000000000003e-02  1.3888888888888890e-01  0.0000000000000000e+00
5.0000000000000003e-02  1.3888888888888890e-01  2.9999999999999999e-01
5.0000000000000003e-02  1.6666666666666666e-01  1.4999999999999999e-01
5.0000000000000003e-02  1.3888888888888890e-01  1.4999999999999999e-01
-5.0000000000000003e-02  2.2222222222222221e-01  0.0000000000000000e+00
-5.0000000000000003e-02  2.2222222222222221e-01  2.9999999999999999e-01
-5.0000000000000003e-02  1.9444444444444442e-01  0.0000000000000000e+00
-5.0000000000000003e-02  1.9444444444444442e-01  2.9999999999999999e-01
-5.0000000000000003e-02  2.2222222222222221e-01  1.4999999999999999e-01
-5.0000000000000003e-02  1.9444444444444442e-01  1.4999999999999999e-01
5.0000000000000003e-02  2.2222222222222221e-01  0.0000000000000000e+00
5.0000000000000003e-02  2.2222222222222221e-01  2.9999999999999999e-01
5.0000000000000003e-02  1.9444444444444442e-01  0.0000000000000000e+00
5.0000000000000003e-02  1.9444444444444442e-01  2.9999999999999999e-01
5.0000000000000003e-02  2.2222222222222221e-01  1.4999999999999999e-01
5.0000000000000003e-02  1.9444444444444442e-01  1.4999999999999999e-01
-5.0000000000000003e-02  2.7777777777777779e-01  0.0000000000000000e+00
-5.0000000000000003e-02  2.7777777777777779e-01  2.9999999999999999e-01
-5.0000000000000003e-02  2.5000000000000000e-01  0.0000000000000000e+00
-5.0000000000000003e-02  2.5000000000000000e-01  2.9999999999999999e-01
-5.0000000000000003e-02  2.7777777777777779e-01  1.4999999999999999e-01
-5.0000000000000003e-02  2.5000000000000000e-01  1.4999999999999999e-01
5.0000000000000003e-02  2.7777777777777779e-01  0.0000000000000000e+00
5.0000000000000003e-02  2.7777777777777779e-01  2.9999999999999999e-01
5.0000000000000003e-02  2.5000000000000000e-01  0.0000000000000000e+00
5.0000000000000003e-02  2.5000000000000000e-01  2.9999999999999999e-01
5.0000000000000003e-02  2.7777777777777779e-01  1.4999999999999999e-01
5.0000000000000003e-02  2.5000000000000000e-01  1.4999999999999999e-01
-5.0000000000000003e-02  3.3333333333333331e-01  0.0000000000000000e+00
-5.0000000000000003e-02  3.3333333333333331e-01  2.9999999999999999e-01
-5.0000000000000003e-02  3.0555555555555558e-01  0.0000000000000000e+00
-5.0000000000000003e-02  3.0555555555555558e-01  2.9999999999999999e-01
-5.0000000000000003e-02  3.3333333333333331e-01  1.4999999999999999e-01
-5.0000000000000003e-02  3.0555555555555558e-01  1.4999999999999999e-01
5.0000000000000003e-02  3.3333333333333331e-01  0.0000000000000000e+00
5.0000000000000003e-02  3.3333333333333331e-01  2.9999999999999999e-01
5.0000000000000003e-02  3.0555555555555558e-01  0.0000000000000000e+00
5.0000000000000003e-02  3.0555555555555558e-01  2.9999999999999999e-01
5.0000000000000003e-02  3.3333333333333331e-01  1.4999999999999999e-01
5.0000000000000003e-02  3.0555555555555558e-01  1.4999999999999999e-01
-5.0000000000000003e-02  3.8888888888888884e-01  0.0000000000000000e+00
-5.0000000000000003e-02  3.8888888888888884e-01  2.9999999999999999e-01
-5.0000000000000003e-02  3.6111111111111105e-01  0.0000000000000000e+00
-5.0000000000000003e-02  3.6111111111111105e-01  2.9999999999999999e-01
-5.0000000000000003e-02  3.8888888888888884e-01  1.4999999999999999e-01
-5.0000000000000003e-02  3.6111111111111105e-01  1.4999999999999999e-01
5.0000000000000003e-02  3.8888888888888884e-01  0.0000000000000000e+00
5.0000000000000003e-02  3.8888888888888884e-01  2.9999999999999999e-01
5.0000000000000003e-02  3.6111111111111105e-01  0.0000000000000000e+00
5.0000000000000003e-02  3.6111111111111105e-01  2.9999999999999999e-01
5.0000000000000003e-02  3.8888888888888884e-01  1.4999999999999999e-01
5.0000000000000003e-02  3.6111111111111105e-01  1.4999999999999999e-01
-5.0000000000000003e-02  4.4444444444444442e-01  0.0000000000000000e+00
-5.0000000000000003e-02  4.4444444444444442e-01  2.9999999999999999e-01
-5.0000000000000003e-02  4.1666666666666663e-01  0.0000000000000000e+00
-5.0000000000000003e-02  4.1666666666666663e-01  2.9999999999999999e-01
-5.0000000000000003e-02  4.4444444444444442e-01  1.4999999999999999e-01
-5.0000000000000003e-02  4.1666666666666663e-01  1.4999999999999999e-01
5.0000000000000003e-02  4.4444444444444442e-01  0.0000000000000000e+00
5.0000000000000003e-02  4.4444444444444442e-01  2.9999999999999999e-01
5.0000000000000003e-02  4.1666666666666663e-01  0.0000000000000000e+00
5.0000000000000003e-02  4.1666666666666663e-01  2.9999999999999999e-01
5.0000000000000003e-02  4.4444444444444442e-01  1.4999999999999999e-01
5.0000000000000003e-02  4.1666666666666663e-01  1.4999999999999999e-01
-5.0000000000000003e-02  5.0000000000000000e-01  0.0000000000000000e+00
-5.0000000000000003e-02  5.0000000000000000e-01  2.9999999999999999e-01
-5.0000000000000003e-02  4.7222222222222221e-01  0.0000000000000000e+00
-5.0000000000000003e-02  4.7222222222222221e-01  2.9999999999999999e-01
-5.0000000000000003e-02  5.0000000000000000e-01  1.4999999999999999e-01
-5.0000000000000003e-02  4.7222222222222221e-01  1.4999999999999999e-01
5.0000000000000003e-02  5.0000000000000000e-01  0.0000000000000000e+00
5.0000000000000003e-02  5.0000000000000000e-01  2.9999999999999999e-01
5.0000000000000003e-02  4.7222222222222221e-01  0.0000000000000000e+00
5.0000000000000003e-02  4.7222222222222221e-01  2.9999999999999999e-01
5.0000000000000003e-02  5.0000000000000000e-01  1.4999999999999999e-01
5.0000000000000003e-02  4.7222222222222221e-01  1.4999999999999999e-01
-5.0000000000000003e-02  5.5555555555555558e-01  0.0000000000000000e+00
-5.0000000000000003e-02  5.5555555555555558e-01  2.9999999999999999e-01
-5.0000000000000003e-02  5.2777777777777779e-01  0.0000000000000000e+00
-5.0000000000000003e-02  5.2777777777777779e-01  2.9999999999999999e-01
-5.0000000000000003e-02  5.5555555555555558e-01  1.4999999999999999e-01
-5.0000000000000003e-02  5.2777777777777779e-01  1.4999999999999999e-01
5.0000000000000003e-02  5.5555555555555558e-01  0.0000000000000000e+00
5.0000000000000003e-02  5.5555555555555558e-01  2.9999999999999999e-01
5.0000000000000003e-02  5.2777777777777779e-01  0.0000000000000000e+00
5.0000000000000003e-02  5.2777777777777779e-01  2.9999999999999999e-01
5.0000000000000003e-02  5.5555555555555558e-01  1.4999999999999999e-01
5.0000000000000003e-02  5.2777777777777779e-01  1.4999999999999999e-01
-5.0000000000000003e-02  6.1111111111111105e-01  0.0000000000000000e+00
-5.0000000000000003e-02  6.1111111111111105e-01  2.9999999999999999e-01
-5.0000000000000003e-02  5.8333333333333326e-01  0.0000000000000000e+00
-5.0000000000000003e-02  5.8333333333333326e-01  2.9999999999999999e-01
-5.0000000000000003e-02  6.1111111111111105e-01  1.4999999999999999e-01
-5.0000000000000003e-02  5.8333333333333326e-01  1.4999999999999999e-01
5.0000000000000003e-02  6.1111111111111105e-01  0.0000000000000000e+00
5.0000000000000003e-02  6.1111111111111105e-01  2.9999999999999999e-01
5.0000000000000003e-02  5.8333333333333326e-01  0.0000000000000000e+00
5.0000000000000003e-02  5.8333333333333326e-01  2.9999999999999999e-01
5.0000000000000003e-02  6.1111111111111105e-01  1.4999999999999999e-01
5.0000000000000003e-02  5.8333333333333326e-01  1.4999999999999999e-01
-5.0000000000000003e-02  6.6666666666666663e-01  0.0000000000000000e+00
-5.0000000000000003e-02  6.6666666666666663e-01  2.9999999999999999e-01
-5.0000000000000003e-02  6.3888888888888884e-01  0.0000000000000000e+00
-5.0000000000000003e-02  6.3888888888888884e-01  2.9999999999999999e-01
-5.0000000000000003e-02  6.6666666666666663e-01  1.4999999999999999e-01
-5.0000000000000003e-02  6.3888888888888884e-01  1.4999999999999999e-01
5.0000000000000003e-02  6.6666666666666663e-01  0.0000000000000000e+00
5.0000000000000003e-02  6.6666666666666663e-01  2.9999999999999999e-01
5.0000000000000003e-02  6.3888888888888884e-01  0.0000000000000000e+00
5.0000000000000003e-02  6.3888888888888884e-01  2.9999999999999999e-01
5.0000000000000003e-02  6.6666666666666663e-01  1.4999999999999999e-01
5.0000000000000003e-02  6.3888888888888884e-01  1.4999999999999999e-01
-5.0000000000000003e-02  7.2222222222222221e-01  0.0000000000000000e+00
-5.0000000000000003e-02  7.2222222222222221e-01  2.9999999999999999e-01
-5.0000000000000003e-02  6.9444444444444442e-01  0.0000000000000000e+00
-5.0000000000000003e-02  6.9444444444444442e-01  2.9999999999999999e-01
-5.0000000000000003e-02  7.2222222222222221e-01  1.4999999999999999e-01
-5.0000000000000003e-02  6.9444444444444442e-01  1.4999999999999999e-01
5.0000000000000003e-02  7.2222222222222221e-01  0.0000000000000000e+00
5.0000000000000003e-02  7.2222222222222221e-01  2.9999999999999999e-01
5.0000000000000003e-02  6.9444444444444442e-01  0.0000000000000000e+00
5.0000000000000003e-02  6.9444444444444442e-01  2.9999999999999999e-01
5.0000000000000003e-02  7.2222222222222221e-01  1.4999999999999999e-01
5.0000000000000003e-02  6.9444444444444442e-01  1.4999999999999999e-01
-5.0000000000000003e-02  7.7777777777777768e-01  0.0000000000000000e+00
-5.0000000000000003e-02  7.7777777777777768e-01  2.9999999999999999e-01
-5.0000000000000003e-02  7.5000000000000000e-01  0.0000000000000000e+00
-5.0000000000000003e-02  7.5000000000000000e-01  2.9999999999999999e-01
-5.0000000000000003e-02  7.7777777777777768e-01  1.4999999999999999e-01
-5.0000000000000003e-02  7.5000000000000000e-01  1.4999999999999999e-01
5.0000000000000003e-02  7.7777777777777768e-01  0.0000000000000000e+00
5.0000000000000003e-02  7.7777777777777768e-01  2.9999999999999999e-01
5.0000000000000003e-02  7.5000000000000000e-01  0.0000000000000000e+00
5.0000000000000003e-02  7.5000000000000000e-01  2.9999999999999999e-01
5.0000000000000003e-02  7.7777777777777768e-01  1.4999999999999999e-01
5.0000000000000003e-02  7.5000000000000000e-01  1.4999999999999999e-01
-5.0000000000000003e-02  8.3333333333333326e-01  0.0000000000000000e+00
-5.0000000000000003e-02  8.3333333333333326e-01  2.9999999999999999e-01
-5.0000000000000003e-02  8.0555555555555547e-01  0.0000000000000000e+00
-5.0000000000000003e-02  8.0555555555555547e-01  2.9999999999999999e-01
-5.0000000000000003e-02  8.3333333333333326e-01  1.4999999999999999e-01
-5.0000000000000003e-02  8.0555555555555536e-01  1.4999999999999999e-01
5.0000000000000003e-02  8.3333333333333326e-01  0.0000000000000000e+00
5.0000000000000003e-02  8.3333333333333326e-01  2.9999999999999999e-01
5.0000000000000003e-02  8.0555555555555547e-01  0.0000000000000000e+00
5.0000000000000003e-02  8.0555555555555547e-01  2.9999999999999999e-01
5.0000000000000003e-02  8.3333333333333326e-01  1.4999999999999999e-01
5.0000000000000003e-02  8.0555555555555536e-01  1.4999999999999999e-01
-5.0000000000000003e-02  8.8888888888888884e-01  0.0000000000000000e+00
-5.0000000000000003e-02  8.8888888888888884e-01  2.9999999999999999e-01
-5.0000000000000003e-02  8.6111111111111105e-01  0.0000000000000000e+00
-5.0000000000000003e-02  8.6111111111111105e-01  2.9999999999999999e-01
-5.0000000000000003e-02  8.8888888888888884e-01  1.4999999999999999e-01
-5.0000000000000003e-02  8.6111111111111105e-01  1.4999999999999999e-01
5.0000000000000003e-02  8.8888888888888884e-01  0.0000000000000000e+00
5.0000000000000003e-02  8.8888888888888884e-01  2.9999999999999999e-01
5.0000000000000003e-02  8.6111111111111105e-01  0.0000000000000000e+00
5.0000000000000003e-02  8.6111111111111105e-01  2.9999999999999999e-01
5.0000000000000003e-02  8.8888888888888884e-01  1.4999999999999999e-01
5.0000000000000003e-02  8.6111111111111105e-01  1.4999999999999999e-01
-5.0000000000000003e-02  9.4444444444444442e-01  0.0000000000000000e+00
-5.0000000000000003e-02  9.4444444444444442e-01  2.9999999999999999e-01
-5.0000000000000003e-02  9.1666666666666663e-01  0.0000000000000000e+00
-5.0000000000000003e-02  9.1666666666666663e-01  2.9999999999999999e-01
-5.0000000000000003e-02  9.4444444444444442e-01  1.4999999999999999e-01
-5.0000000000000003e-02  9.1666666666666674e-01  1.4999999999999999e-01
5.0000000000000003e-02  9.4444444444444442e-01  0.0000000000000000e+00
5.0000000000000003e-02  9.4444444444444442e-01  2.9999999999999999e-01
5.0000000000000003e-02  9.1666666666666663e-01  0.0000000000000000e+00
5.0000000000000003e-02  9.1666666666666663e-01  2.9999999999999999e-01
5.0000000000000003e-02  9.4444444444444442e-01  1.4999999999999999e-01
5.0000000000000003e-02  9.1666666666666674e-01  1.4999999999999999e-01
-5.0000000000000003e-02  1.0000000000000000e+00  0.0000000000000000e+00
-1.6666666666666670e-02  1.0000000000000000e+00  0.0000000000000000e+00
-5.0000000000000003e-02  1.0000000000000000e+00  2.9999999999999999e-01
-1.6666666666666670e-02  1.0000000000000000e+00  2.9999999999999999e-01
-5.0000000000000003e-02  9.7222222222222221e-01  0.0000000000000000e+00
-3.3333333333333340e-02  1.0000000000000000e+00  0.0000000000000000e+00
-5.0000000000000003e-02  9.7222222222222221e-01  2.9999999999999999e-01
-3.3333333333333340e-02  1.0000000000000000e+00  2.9999999999999999e-01
-5.0000000000000003e-02  1.0000000000000000e+00  1.4999999999999999e-01
-1.6666666666666670e-02  1.0000000000000000e+00  1.4999999999999999e-01
-5.0000000000000003e-02  9.7222222222222221e-01  1.4999999999999999e-01
-3.3333333333333340e-02  1.0000000000000000e+00  1.4999999999999999e-01
1.6666666666666663e-02  1.0000000000000000e+00  0.0000000000000000e+00
1.6666666666666663e-02  1.0000000000000000e+00  2.9999999999999999e-01
-3.4694469519536142e-18  1.0000000000000000e+00  0.0000000000000000e+00
-3.4694469519536142e-18  1.0000000000000000e+00  2.9999999999999999e-01
1.6666666666666663e-02  1.0000000000000000e+00  1.4999999999999999e-01
-3.4694469519536142e-18  1.0000000000000000e+00  1.4999999999999999e-01
5.0000000000000003e-02  1.0000000000000000e+00  0.0000000000000000e+00
5.0000000000000003e-02  1.0000000000000000e+00  2.9999999999999999e-01
5.0000000000000003e-02  9.7222222222222221e-01  0.0000000000000000e+00
3.3333333333333333e-02  1.0000000000000000e+00  0.0000000000000000e+00
5.0000000000000003e-02  9.7222222222222221e-01  2.9999999999999999e-01
3.3333333333333333e-02  1.0000000000000000e+00  2.9999999999999999e-01
5.0000000000000003e-02  1.0000000000000000e+00  1.4999999999999999e-01
5.0000000000000003e-02  9.7222222222222221e-01  1.4999999999999999e-01
3.3333333333333333e-02  1.0000000000000000e+00  1.4999999999999999e-01

CELLS 0 0


CELL_TYPES 0


POINT_DATA 237

VECTORS VertexNormals float

0.0000000000000000e+00 0.0000000000000000e+00 0.0000000000000000e+00 
0.0000000000000000e+00 0.0000000000000000e+00 0.0000000000000000e+00 
0.0000000000000000e+00 0.0000000000000000e+00 0.0000000000000000e+00 
0.0000000000000000e+00 0.0000000000000000e+00 0.0000000000000000e+00 
0.0000000000000000e+00 0.0000000000000000e+00 0.0000000000000000e+00 
0.0000000000000000e+00 0.0000000000000000e+00 0.0000000000000000e+00 
0.0000000000000000e+00 0.0000000000000000e+00 0.0000000000000000e+00 
0.0000000000000000e+00 0.0000000000000000e+00 0.0000000000000000e+00 
0.0000000000000000e+00 0.0000000000000000e+00 0.0000000000000000e+00 
0.0000000000000000e+00 0.0000000000000000e+00 0.0000000000000000e+00 
0.0000000000000000e+00 0.0000000000000000e+00 0.0000000000000000e+00 
0.0000000000000000e+00 0.0000000000000000e+00 0.0000000000000000e+00 
0.0000000000000000e+00 0.0000000000000000e+00 0.0000000000000000e+00 
0.0000000000000000e+00 0.0000000000000000e+00 0.0000000000000000e+00 
0.0000000000000000e+00 0.0000000000000000e+00 0.0000000000000000e+00 
0.0000000000000000e+00 0.0000000000000000e+00 0.0000000000000000e+00 
0.0000000000000000e+00 0.0000000000000000e+00 0.0000000000000000e+00 
0.0000000000000000e+00 0.0000000000000000e+00 0.0000000000000000e+00 
0.0000000000000000e+00 0.0000000000000000e+00 0.0000000000000000e+00 
0.0000000000000000e+00 0.0000000000000000e+00 0.0000000000000000e+00 
0.0000000000000000e+00 0.0000000000000000e+00 0.0000000000000000e+00 
0.0000000000000000e+00 0.0000000000000000e+00 0.0000000000000000e+00 
0.0000000000000000e+00 0.0000000000000000e+00 0.0000000000000000e+00 
0.0000000000000000e+00 0.0000000000000000e+00 0.0000000000000000e+00 
0.0000000000000000e+00 0.0000000000000000e+00 0.0000000000000000e+00 
0.0000000000000000e+00 0.0000000000000000e+00 0.0000000000000000e+00 
0.0000000000000000e+00 0.0000000000000000e+00 0.0000000000000000e+00 
0.0000000000000000e+00 0.0000000000000000e+00 0.0000000000000000e+00 
0.0000000000000000e+00 0.0000000000000000e+00 0.0000000000000000e+00 
0.0000000000000000e+00 0.0000000000000000e+00 0.0000000000000000e+00 
0.0000000000000000e+00 0.0000000000000000e+00 0.0000000000000000e+00 
0.0000000000000000e+00 0.0000000000000000e+00 0.0000000000000000e+00 
0.0000000000000000e+00 0.0000000000000000e+00 0.0000000000000000e+00 
0.0000000000000000e+00 0.0000000000000000e+00 0.0000000000000000e+00 
0.0000000000000000e+00 0.0000000000000000e+00 0.0000000000000000e+00 
0.0000000000000000e+00 0.0000000000000000e+00 0.0000000000000000e+00 
0.0000000000000000e+00 0.0000000000000000e+00 0.0000000000000000e+00 
0.0000000000000000e+00 0.0000000000000000e+00 0.0000000000000000e+00 
0.0000000000000000e+00 0.0000000000000000e+00 0.0000000000000000e+00 
0.0000000000000000e+00 0.0000000000000000e+00 0.0000000000000000e+00 
0.0000000000000000e+00 0.0000000000000000e+00 0.0000000000000000e+00 
0.0000000000000000e+00 0.0000000000000000e+00 0.0000000000000000e+00 
0.0000000000000000e+00 0.0000000000000000e+00 0.0000000000000000e+00 
0.0000000000000000e+00 0.0000000000000000e+00 0.0000000000000000e+00 
0.0000000000000000e+00 0.0000000000000000e+00 0.0000000000000000e+00 
0.0000000000000000e+00 0.0000000000000000e+00 0.0000000000000000e+00 
0.0000000000000000e+00 0.0000000000000000e+00 0.0000000000000000e+00 
0.0000000000000000e+00 0.0000000000000000e+00 0.0000000000000000e+00 
0.0000000000000000e+00 0.0000000000000000e+00 0.0000000000000000e+00 
0.0000000000000000e+00 0.0000000000000000e+00 0.0000000000000000e+00 
0.0000000000000000e+00 0.0000000000000000e+00 0.0000000000000000e+00 
0.0000000000000000e+00 0.0000000000000000e+00 0.0000000000000000e+00 
0.0000000000000000e+00 0.0000000000000000e+00 0.0000000000000000e+00 
0.0000000000000000e+00 0.0000000000000000e+00 0.0000000000000000e+00 
0.0000000000000000e+00 0.0000000000000000e+00 0.0000000000000000e+00 
0.0000000000000000e+00 0.0000000000000000e+00 0.0000000000000000e+00 
0.0000000000000000e+00 0.0000000000000000e+00 0.0000000000000000e+00 
0.0000000000000000e+00 0.0000000000000000e+00 0.0000000000000000e+00 
0.0000000000000000e+00 0.0000000000000000e+00 0.0000000000000000e+00 
0.0000000000000000e+00 0.0000000000000000e+00 0.0000000000000000e+00 
0.0000000000000000e+00 0.0000000000000000e+00 0.0000000000000000e+00 
0.0000000000000000e+00 0.0000000000000000e+00 0.0000000000000000e+00 
0.0000000000000000e+00 0.0000000000000000e+00 0.0000000000000000e+00 
0.0000000000000000e+00 0.0000000000000000e+00 0.0000000000000000e+00 
0.0000000000000000e+00 0.0000000000000000e+00 0.0000000000000000e+00 
0.0000000000000000e+00 0.0000000000000000e+00 0.0000000000000000e+00 
0.0000000000000000e+00 0.0000000000000000e+00 0.0000000000000000e+00 
0.0000000000000000e+00 0.0000000000000000e+00 0.0000000000000000e+00 
0.0000000000000000e+00 0.0000000000000000e+00 0.0000000000000000e+00 
0.0000000000000000e+00 0.0000000000000000e+00 0.0000000000000000e+00 
0.0000000000000000e+00 0.0000000000000000e+00 0.0000000000000000e+00 
0.0000000000000000e+00 0.0000000000000000e+00 0.0000000000000000e+00 
0.0000000000000000e+00 0.0000000000000000e+00 0.0000000000000000e+00 
0.0000000000000000e+00 0.0000000000000000e+00 0.0000000000000000e+00 
0.0000000000000000e+00 0.0000000000000000e+00 0.0000000000000000e+00 
0.0000000000000000e+00 0.0000000000000000e+00 0.0000000000000000e+00 
0.0000000000000000e+00 0.0000000000000000e+00 0.0000000000000000e+00 
0.0000000000000000e+00 0.0000000000000000e+00 0.0000000000000000e+00 
0.0000000000000000e+00 0.0000000000000000e+00 0.0000000000000000e+00 
0.0000000000000000e+00 0.0000000000000000e+00 0.0000000000000000e+00 
0.0000000000000000e+00 0.0000000000000000e+00 0.0000000000000000e+00 
0.0000000000000000e+00 0.0000000000000000e+00 0.0000000000000000e+00 
0.0000000000000000e+00 0.0000000000000000e+00 0.0000000000000000e+00 
0.0000000000000000e+00 0.0000000000000000e+00 0.0000000000000000e+00 
0.0000000000000000e+00 0.0000000000000000e+00 0.0000000000000000e+00 
0.0000000000000000e+00 0.0000000000000000e+00 0.0000000000000000e+00 
0.0000000000000000e+00 0.0000000000000000e+00 0.0000000000000000e+00 
0.0000000000000000e+00 0.0000000000000000e+00 0.0000000000000000e+00 
0.0000000000000000e+00 0.0000000000000000e+00 0.0000000000000000e+00 
0.0000000000000000e+00 0.0000000000000000e+00 0.0000000000000000e+00 
0.0000000000000000e+00 0.0000000000000000e+00 0.0000000000000000e+00 
0.0000000000000000e+00 0.0000000000000000e+00 0.0000000000000000e+00 
0.0000000000000000e+00 0.0000000000000000e+00 0.0000000000000000e+00 
0.0000000000000000e+00 0.0000000000000000e+00 0.0000000000000000e+00 
0.0000000000000000e+00 0.0000000000000000e+00 0.0000000000000000e+00 
0.0000000000000000e+00 0.0000000000000000e+00 0.0000000000000000e+00 
0.0000000000000000e+00 0.0000000000000000e+00 0.0000000000000000e+00 
0.0000000000000000e+00 0.0000000000000000e+00 0.0000000000000000e+00 
0.0000000000000000e+00 0.0000000000000000e+00 0.0000000000000000e+00 
0.0000000000000000e+00 0.0000000000000000e+00 0.0000000000000000e+00 
0.0000000000000000e+00 0.0000000000000000e+00 0.0000000000000000e+00 
0.0000000000000000e+00 0.0000000000000000e+00 0.0000000000000000e+00 
0.0000000000000000e+00 0.0000000000000000e+00 0.0000000000000000e+00 
0.0000000000000000e+00 0.0000000000000000e+00 0.0000000000000000e+00 
0.0000000000000000e+00 0.0000000000000000e+00 0.0000000000000000e+00 
0.0000000000000000e+00 0.0000000000000000e+00 0.0000000000000000e+00 
0.0000000000000000e+00 0.0000000000000000e+00 0.0000000000000000e+00 
0.0000000000000000e+00 0.0000000000000000e+00 0.0000000000000000e+00 
0.0000000000000000e+00 0.0000000000000000e+00 0.0000000000000000e+00 
0.0000000000000000e+00 0.0000000000000000e+00 0.0000000000000000e+00 
0.0000000000000000e+00 0.0000000000000000e+00 0.0000000000000000e+00 
0.0000000000000000e+00 0.0000000000000000e+00 0.0000000000000000e+00 
0.0000000000000000e+00 0.0000000000000000e+00 0.0000000000000000e+00 
0.0000000000000000e+00 0.0000000000000000e+00 0.0000000000000000e+00 
0.0000000000000000e+00 0.0000000000000000e+00 0.0000000000000000e+00 
0.0000000000000000e+00 0.0000000000000000e+00 0.0000000000000000e+00 
0.0000000000000000e+00 0.0000000000000000e+00 0.0000000000000000e+00 
0.0000000000000000e+00 0.0000000000000000e+00 0.0000000000000000e+00 
0.0000000000000000e+00 0.0000000000000000e+00 0.0000000000000000e+00 
0.0000000000000000e+00 0.0000000000000000e+00 0.0000000000000000e+00 
0.0000000000000000e+00 0.0000000000000000e+00 0.0000000000000000e+00 
0.0000000000000000e+00 0.0000000000000000e+00 0.0000000000000000e+00 
0.0000000000000000e+00 0.0000000000000000e+00 0.0000000000000000e+00 
0.0000000000000000e+00 0.0000000000000000e+00 0.0000000000000000e+00 
0.0000000000000000e+00 0.0000000000000000e+00 0.0000000000000000e+00 
0.0000000000000000e+00 0.0000000000000000e+00 0.0000000000000000e+00 
0.0000000000000000e+00 0.0000000000000000e+00 0.0000000000000000e+00 
0.0000000000000000e+00 0.0000000000000000e+00 0.0000000000000000e+00 
0.0000000000000000e+00 0.0000000000000000e+00 0.0000000000000000e+00 
0.0000000000000000e+00 0.0000000000000000e+00 0.0000000000000000e+00 
0.0000000000000000e+00 0.0000000000000000e+00 0.0000000000000000e+00 
0.0000000000000000e+00 0.0000000000000000e+00 0.0000000000000000e+00 
0.0000000000000000e+00 0.0000000000000000e+00 0.0000000000000000e+00 
0.0000000000000000e+00 0.0000000000000000e+00 0.0000000000000000e+00 
0.0000000000000000e+00 0.0000000000000000e+00 0.0000000000000000e+00 
0.0000000000000000e+00 0.0000000000000000e+00 0.0000000000000000e+00 
0.0000000000000000e+00 0.0000000000000000e+00 0.0000000000000000e+00 
0.0000000000000000e+00 0.0000000000000000e+00 0.0000000000000000e+00 
0.0000000000000000e+00 0.0000000000000000e+00 0.0000000000000000e+00 
0.0000000000000000e+00 0.0000000000000000e+00 0.0000000000000000e+00 
0.0000000000000000e+00 0.0000000000000000e+00 0.0000000000000000e+00 
0.0000000000000000e+00 0.0000000000000000e+00 0.0000000000000000e+00 
0.0000000000000000e+00 0.0000000000000000e+00 0.0000000000000000e+00 
0.0000000000000000e+00 0.0000000000000000e+00 0.0000000000000000e+00 
0.0000000000000000e+00 0.0000000000000000e+00 0.0000000000000000e+00 
0.0000000000000000e+00 0.0000000000000000e+00 0.0000000000000000e+00 
0.0000000000000000e+00 0.0000000000000000e+00 0.0000000000000000e+00 
0.0000000000000000e+00 0.0000000000000000e+00 0.0000000000000000e+00 
0.0000000000000000e+00 0.0000000000000000e+00 0.0000000000000000e+00 
0.0000000000000000e+00 0.0000000000000000e+00 0.0000000000000000e+00 
0.0000000000000000e+00 0.0000000000000000e+00 0.0000000000000000e+00 
0.0000000000000000e+00 0.0000000000000000e+00 0.0000000000000000e+00 
0.0000000000000000e+00 0.0000000000000000e+00 0.0000000000000000e+00 
0.0000000000000000e+00 0.0000000000000000e+00 0.0000000000000000e+00 
0.0000000000000000e+00 0.0000000000000000e+00 0.0000000000000000e+00 
0.0000000000000000e+00 0.0000000000000000e+00 0.0000000000000000e+00 
0.0000000000000000e+00 0.0000000000000000e+00 0.0000000000000000e+00 
0.0000000000000000e+00 0.0000000000000000e+00 0.0000000000000000e+00 
0.0000000000000000e+00 0.0000000000000000e+00 0.0000000000000000e+00 
0.0000000000000000e+00 0.0000000000000000e+00 0.0000000000000000e+00 
0.0000000000000000e+00 0.0000000000000000e+00 0.0000000000000000e+00 
0.0000000000000000e+00 0.0000000000000000e+00 0.0000000000000000e+00 
0.0000000000000000e+00 0.0000000000000000e+00 0.0000000000000000e+00 
0.0000000000000000e+00 0.0000000000000000e+00 0.0000000000000000e+00 
0.0000000000000000e+00 0.0000000000000000e+00 0.0000000000000000e+00 
0.0000000000000000e+00 0.0000000000000000e+00 0.0000000000000000e+00 
0.0000000000000000e+00 0.0000000000000000e+00 0.0000000000000000e+00 
0.0000000000000000e+00 0.0000000000000000e+00 0.0000000000000000e+00 
0.0000000000000000e+00 0.0000000000000000e+00 0.0000000000000000e+00 
0.0000000000000000e+00 0.0000000000000000e+00 0.0000000000000000e+00 
0.0000000000000000e+00 0.0000000000000000e+00 0.0000000000000000e+00 
0.0000000000000000e+00 0.0000000000000000e+00 0.0000000000000000e+00 
0.0000000000000000e+00 0.0000000000000000e+00 0.0000000000000000e+00 
0.0000000000000000e+00 0.0000000000000000e+00 0.0000000000000000e+00 
0.0000000000000000e+00 0.0000000000000000e+00 0.0000000000000000e+00 
0.0000000000000000e+00 0.0000000000000000e+00 0.0000000000000000e+00 
0.0000000000000000e+00 0.0000000000000000e+00 0.0000000000000000e+00 
0.0000000000000000e+00 0.0000000000000000e+00 0.0000000000000000e+00 
0.0000000000000000e+00 0.0000000000000000e+00 0.0000000000000000e+00 
0.0000000000000000e+00 0.0000000000000000e+00 0.0000000000000000e+00 
0.0000000000000000e+00 0.0000000000000000e+00 0.0000000000000000e+00 
0.0000000000000000e+00 0.0000000000000000e+00 0.0000000000000000e+00 
0.0000000000000000e+00 0.0000000000000000e+00 0.0000000000000000e+00 
0.0000000000000000e+00 0.0000000000000000e+00 0.0000000000000000e+00 
0.0000000000000000e+00 0.0000000000000000e+00 0.0000000000000000e+00 
0.0000000000000000e+00 0.0000000000000000e+00 0.0000000000000000e+00 
0.0000000000000000e+00 0.0000000000000000e+00 0.0000000000000000e+00 
0.0000000000000000e+00 0.0000000000000000e+00 0.0000000000000000e+00 
0.0000000000000000e+00 0.0000000000000000e+00 0.0000000000000000e+00 
0.0000000000000000e+00 0.0000000000000000e+00 0.0000000000000000e+00 
0.0000000000000000e+00 0.0000000000000000e+00 0.0000000000000000e+00 
0.0000000000000000e+00 0.0000000000000000e+00 0.0000000000000000e+00 
0.0000000000000000e+00 0.0000000000000000e+00 0.0000000000000000e+00 
0.0000000000000000e+00 0.0000000000000000e+00 0.0000000000000000e+00 
0.0000000000000000e+00 0.0000000000000000e+00 0.0000000000000000e+00 
0.0000000000000000e+00 0.0000000000000000e+00 0.0000000000000000e+00 
0.0000000000000000e+00 0.0000000000000000e+00 0.0000000000000000e+00 
0.0000000000000000e+00 0.0000000000000000e+00 0.0000000000000000e+00 
0.0000000000000000e+00 0.0000000000000000e+00 0.0000000000000000e+00 
0.0000000000000000e+00 0.0000000000000000e+00 0.0000000000000000e+00 
0.0000000000000000e+00 0.0000000000000000e+00 0.0000000000000000e+00 
0.0000000000000000e+00 0.0000000000000000e+00 0.0000000000000000e+00 
0.0000000000000000e+00 0.0000000000000000e+00 0.0000000000000000e+00 
0.0000000000000000e+00 0.0000000000000000e+00 0.0000000000000000e+00 
0.0000000000000000e+00 0.0000000000000000e+00 0.0000000000000000e+00 
0.0000000000000000e+00 0.0000000000000000e+00 0.0000000000000000e+00 
0.0000000000000000e+00 0.0000000000000000e+00 0.0000000000000000e+00 
0.0000000000000000e+00 0.0000000000000000e+00 0.0000000000000000e+00 
0.0000000000000000e+00 0.0000000000000000e+00 0.0000000000000000e+00 
0.0000000000000000e+00 0.0000000000000000e+00 0.0000000000000000e+00 
0.0000000000000000e+00 0.0000000000000000e+00 0.0000000000000000e+00 
0.0000000000000000e+00 0.0000000000000000e+00 0.0000000000000000e+00 
0.0000000000000000e+00 0.0000000000000000e+00 0.0000000000000000e+00 
0.0000000000000000e+00 0.0000000000000000e+00 0.0000000000000000e+00 
0.0000000000000000e+00 0.0000000000000000e+00 0.0000000000000000e+00 
0.0000000000000000e+00 0.0000000000000000e+00 0.0000000000000000e+00 
0.0000000000000000e+00 0.0000000000000000e+00 0.0000000000000000e+00 
0.0000000000000000e+00 0.0000000000000000e+00 0.0000000000000000e+00 
0.0000000000000000e+00 0.0000000000000000e+00 0.0000000000000000e+00 
0.0000000000000000e+00 0.0000000000000000e+00 0.0000000000000000e+00 
0.0000000000000000e+00 0.0000000000000000e+00 0.0000000000000000e+00 
0.0000000000000000e+00 0.0000000000000000e+00 0.0000000000000000e+00 
0.0000000000000000e+00 0.0000000000000000e+00 0.0000000000000000e+00 
0.0000000000000000e+00 0.0000000000000000e+00 0.0000000000000000e+00 
0.0000000000000000e+00 0.0000000000000000e+00 0.0000000000000000e+00 
0.0000000000000000e+00 0.0000000000000000e+00 0.0000000000000000e+00 
0.0000000000000000e+00 0.0000000000000000e+00 0.0000000000000000e+00 
0.0000000000000000e+00 0.0000000000000000e+00 0.0000000000000000e+00 
0.0000000000000000e+00 0.0000000000000000e+00 0.0000000000000000e+00 
0.0000000000000000e+00 0.0000000000000000e+00 0.0000000000000000e+00 
0.0000000000000000e+00 0.0000000000000000e+00 0.0000000000000000e+00 
0.0000000000000000e+00 0.0000000000000000e+00 0.0000000000000000e+00 
0.0000000000000000e+00 0.0000000000000000e+00 0.0000000000000000e+00 
0.0000000000000000e+00 0.0000000000000000e+00 0.0000000000000000e+00 
0.0000000000000000e+00 0.0000000000000000e+00 0.0000000000000000e+00 
0.0000000000000000e+00 0.0000000000000000e+00 0.0000000000000000e+00 
0.0000000000000000e+00 0.0000000000000000e+00 0.0000000000000000e+00 

VECTORS Displacement float
0.0000000000000000e+00 0.0000000000000000e+00 0.0000000000000000e+00 
3.0498237266852113e-03 2.8293729748993931e-03 0.0000000000000000e+00 
0.0000000000000000e+00 0.0000000000000000e+00 0.0000000000000000e+00 
3.0498170058505282e-03 2.8293699038174228e-03 0.0000000000000000e+00 
1.4113618799470840e-03 1.6228405758936582e-03 0.0000000000000000e+00 
1.4113657710019029e-03 1.6228371215784945e-03 0.0000000000000000e+00 
0.0000000000000000e+00 0.0000000000000000e+00 0.0000000000000000e+00 
3.0498187241893814e-03 2.8293713218997068e-03 7.1112677913645439e-10 
1.4113623840232876e-03 1.6228377851657530e-03 -7.4708942533902532e-10 
0.0000000000000000e+00 0.0000000000000000e+00 0.0000000000000000e+00 
3.1275546602179440e-03 -2.8634328603181153e-03 0.0000000000000000e+00 
0.0000000000000000e+00 0.0000000000000000e+00 0.0000000000000000e+00 
3.1275551408489304e-03 -2.8634274724753743e-03 0.0000000000000000e+00 
1.4242924049227155e-03 -1.6482151406656050e-03 0.0000000000000000e+00 
1.4242926330575675e-03 -1.6482112079591999e-03 0.0000000000000000e+00 
0.0000000000000000e+00 0.0000000000000000e+00 0.0000000000000000e+00 
3.1275512533838644e-03 -2.8634329106680899e-03 -5.1457923112247600e-11 
1.4242919363144668e-03 -1.6482181725385508e-03 6.6789414335852885e-10 
7.9078350385859610e-03 4.6124942364016881e-03 0.0000000000000000e+00 
7.9078316440298960e-03 4.6125054617720505e-03 0.0000000000000000e+00 
5.2675764013349960e-03 3.8046107840159714e-03 0.0000000000000000e+00 
5.2675661964994586e-03 3.8046130967784994e-03 0.0000000000000000e+00 
7.9078349441115137e-03 4.6124975850637337e-03 8.4715279627245075e-10 
5.2675719165385954e-03 3.8046139898437374e-03 -1.4850273484146165e-09 
7.9652132793920603e-03 -4.6049036326219900e-03 0.0000000000000000e+00 
7.9652120435915255e-03 -4.6049061117857601e-03 0.0000000000000000e+00 
5.3524785190809231e-03 -3.8094937960583587e-03 0.0000000000000000e+00 
5.3524720948156489e-03 -3.8094887601073865e-03 0.0000000000000000e+00 
7.9652050486919371e-03 -4.6049030856552082e-03 1.7082477788869493e-09 
5.3524741247539410e-03 -3.8094932739854721e-03 2.1280153153748884e-09 
1.4095199490100525e-02 5.8007990441166241e-03 0.0000000000000000e+00 
1.4095205703108349e-02 5.8007966126074183e-03 0.0000000000000000e+00 
1.0851890402940555e-02 5.2660333720241249e-03 0.0000000000000000e+00 
1.0851900649321816e-02 5.2660396755744281e-03 0.0000000000000000e+00 
1.4095205545533503e-02 5.8008004477181196e-03 1.1414796941080357e-09 
1.0851889568268385e-02 5.2660349776714761e-03 -1.1571167794382943e-10 
1.4219904381919325e-02 -5.8160671546294215e-03 0.0000000000000000e+00 
1.4219911258540906e-02 -5.8160715529735462e-03 0.0000000000000000e+00 
1.0928143631614403e-02 -5.2732895793403817e-03 0.0000000000000000e+00 
1.0928140182315867e-02 -5.2732963725797312e-03 0.0000000000000000e+00 
1.4219910409345664e-02 -5.8160681961539774e-03 4.9691460632922055e-10 
1.0928143380189763e-02 -5.2732947827691754e-03 4.4992392353209257e-10 
2.1306800272026596e-02 6.5245384799584617e-03 0.0000000000000000e+00 
2.1306812139898157e-02 6.5245463007064606e-03 0.0000000000000000e+00 
1.7614686962601017e-02 6.2145966335822103e-03 0.0000000000000000e+00 
1.7614688708734332e-02 6.2146007631550190e-03 0.0000000000000000e+00 
2.1306808901944512e-02 6.5245397799853048e-03 2.0477531563316580e-09 
1.7614690898676101e-02 6.2145955415712287e-03 3.9301044708415821e-10 
2.1375876800324243e-02 -6.5759319059983719e-03 0.0000000000000000e+00 
2.1375890999575493e-02 -6.5759401044129077e-03 0.0000000000000000e+00 
1.7742056029255431e-02 -6.2303904554491078e-03 0.0000000000000000e+00 
1.7742061222143925e-02 -6.2303982851360708e-03 0.0000000000000000e+00 
2.1375897236742582e-02 -6.5759406303033362e-03 -5.5760461843646364e-10 
1.7742058547765234e-02 -6.2303965754683475e-03 8.9829734483707411e-10 
2.9105242749065445e-02 6.8478300037035931e-03 0.0000000000000000e+00 
2.9105261460082778e-02 6.8478184277427565e-03 0.0000000000000000e+00 
2.5159648197168441e-02 6.7334266285988317e-03 0.0000000000000000e+00 
2.5159668736070201e-02 6.7334247812145852e-03 0.0000000000000000e+00 
2.9105248379642859e-02 6.8478235343994043e-03 2.1978067728089591e-09 
2.5159656867315076e-02 6.7334215563610127e-03 1.9240301732730442e-09 
2.9217418824782855e-02 -7.0243454922014389e-03 0.0000000000000000e+00 
2.9217429030453677e-02 -7.0243395733183599e-03 0.0000000000000000e+00 
2.5214844890239146e-02 -6.8584760741774321e-03 0.0000000000000000e+00 
2.5214854756542719e-02 -6.8584772466321175e-03 0.0000000000000000e+00 
2.9217424362890071e-02 -7.0243475705377267e-03 -2.6181922900155486e-09 
2.5214850697986204e-02 -6.8584793227221769e-03 -2.3627122207931959e-09 
3.6993563979637489e-02 6.8336498203522660e-03 0.0000000000000000e+00 
3.6993564813483287e-02 6.8336438574753949e-03 0.0000000000000000e+00 
3.3052897010567427e-02 6.8739361609934328e-03 0.0000000000000000e+00 
3.3052902444688420e-02 6.8739276809859206e-03 0.0000000000000000e+00 
3.6993561766547972e-02 6.8336453515532121e-03 1.5600891063650002e-09 
3.3052899021612667e-02 6.8739304006776771e-03 1.8282346904693344e-09 
3.7093802438677187e-02 -6.9707461823573392e-03 0.0000000000000000e+00 
3.7093809532025943e-02 -6.9707439478359084e-03 0.0000000000000000e+00 
3.3203054622105932e-02 -7.0369405353670530e-03 0.0000000000000000e+00 
3.3203057227921495e-02 -7.0369370787051015e-03 0.0000000000000000e+00 
3.7093823872807463e-02 -6.9707484669842184e-03 -8.4811786890454475e-10 
3.3203060735921823e-02 -7.0369492851759729e-03 -1.1284000754033485e-09 
4.4678645075446395e-02 6.5736654135425329e-03 0.0000000000000000e+00 
4.4678642538000204e-02 6.5736622506232054e-03 0.0000000000000000e+00 
4.0880770328465738e-02 6.7230194872194317e-03 0.0000000000000000e+00 
4.0880773795329714e-02 6.7230157490233986e-03 0.0000000000000000e+00 
4.4678636395231230e-02 6.5736595492892885e-03 1.2648241811695641e-09 
4.0880766389999795e-02 6.7230115382188984e-03 1.4160400770555279e-09 
4.4796392489523218e-02 -6.7721590398193464e-03 0.0000000000000000e+00 
4.4796387032028977e-02 -6.7721485987296487e-03 0.0000000000000000e+00 
4.0941685713242096e-02 -6.8893648940526568e-03 0.0000000000000000e+00 
4.0941692022672796e-02 -6.8893583266782764e-03 0.0000000000000000e+00 
4.4796388305686392e-02 -6.7721519410532558e-03 1.6881281521591214e-09 
4.0941690429397173e-02 -6.8893594525348562e-03 3.3500349483268503e-10 
5.2030913027468317e-02 6.1610192675252886e-03 0.0000000000000000e+00 
5.2030907572017102e-02 6.1610311456408128e-03 0.0000000000000000e+00 
4.8404616823797826e-02 6.3886785958632026e-03 0.0000000000000000e+00 
4.8404603680623950e-02 6.3886825821701226e-03 0.0000000000000000e+00 
5.2030907376368125e-02 6.1610225216082483e-03 1.5002428704514771e-10 
4.8404604559319532e-02 6.3886770942229382e-03 -5.0578581873530284e-10 
5.2132581362664278e-02 -6.3198165611392434e-03 0.0000000000000000e+00 
5.2132576544163221e-02 -6.3198221913293622e-03 0.0000000000000000e+00 
4.8553597299436646e-02 -6.5699008425440242e-03 0.0000000000000000e+00 
4.8553577687875105e-02 -6.5698997573725437e-03 0.0000000000000000e+00 
5.2132583861274617e-02 -6.3198209096964209e-03 2.2151550067098018e-09 
4.8553584140735045e-02 -6.5699026211302365e-03 3.4783513229057364e-09 
5.8783516894297880e-02 5.5166529968807259e-03 0.0000000000000000e+00 
5.8783517509118019e-02 5.5166600664347410e-03 0.0000000000000000e+00 
5.5519630114043136e-02 5.8680221508372885e-03 0.0000000000000000e+00 
5.5519629563742796e-02 5.8680323307627033e-03 0.0000000000000000e+00 
5.8783518695776367e-02 5.5166524573592238e-03 9.7882965211914834e-10 
5.5519632830427407e-02 5.8680237778843264e-03 6.5705527622302681e-10 
5.8834058256187191e-02 -5.6119402711329348e-03 0.0000000000000000e+00 
5.8834053787766502e-02 -5.6119373646090140e-03 0.0000000000000000e+00 
5.5580025770257870e-02 -6.0086190287334633e-03 0.0000000000000000e+00 
5.5580026465135712e-02 -6.0086216914068810e-03 0.0000000000000000e+00 
5.8834064974102748e-02 -5.6119354293521235e-03 2.0598372509813044e-09 
5.5580032853054448e-02 -6.0086204796582533e-03 1.8702930700718989e-09 
6.4494427098579360e-02 4.7911735199579518e-03 0.0000000000000000e+00 
6.4494434790615895e-02 4.7911809884605954e-03 0.0000000000000000e+00 
6.1760238542535276e-02 5.1435729417990093e-03 0.0000000000000000e+00 
6.1760242009530744e-02 5.1435798162033225e-03 0.0000000000000000e+00 
6.4494427592989526e-02 4.7911807456789829e-03 1.9467578420742901e-09 
6.1760235440907633e-02 5.1435737098295305e-03 8.1267382183768503e-10 
6.4539592025451425e-02 -4.8049074428498425e-03 0.0000000000000000e+00 
6.4539592220093089e-02 -4.8049184292157827e-03 0.0000000000000000e+00 
6.1807839432541326e-02 -5.1862916809606759e-03 0.0000000000000000e+00 
6.1807825382724516e-02 -5.1862957252050692e-03 0.0000000000000000e+00 
6.4539593341409851e-02 -4.8049170355787263e-03 2.1194025756821584e-09 
6.1807833007910006e-02 -5.1862929223895453e-03 3.2468416751650387e-09 
6.9384659664375792e-02 4.2185355408384433e-03 0.0000000000000000e+00 
6.9384674142844271e-02 4.2185360874112269e-03 0.0000000000000000e+00 
6.7029688493040362e-02 4.4790303012529967e-03 0.0000000000000000e+00 
6.7029702493437537e-02 4.4790361729281246e-03 0.0000000000000000e+00 
6.9384664710999841e-02 4.2185312179152806e-03 3.0316592055182699e-09 
6.7029699137221843e-02 4.4790330871635762e-03 2.2130178600959524e-09 
6.9467142829554185e-02 -4.1563067016892191e-03 0.0000000000000000e+00 
6.9467164762155156e-02 -4.1563045239235603e-03 0.0000000000000000e+00 
6.7085962178052252e-02 -4.4720633981205913e-03 0.0000000000000000e+00 
6.7085978494124884e-02 -4.4720721582008930e-03 0.0000000000000000e+00 
6.9467163857509201e-02 -4.1563109232060679e-03 5.0899170846725478e-10 
6.7085974153303557e-02 -4.4720757563878289e-03 1.3322529463321115e-09 
7.3753085463788351e-02 3.7555598303160402e-03 0.0000000000000000e+00 
7.3753090004947897e-02 3.7555608974103932e-03 0.0000000000000000e+00 
7.1626549284077690e-02 3.9992551516913272e-03 0.0000000000000000e+00 
7.1626557872060098e-02 3.9992539711972011e-03 0.0000000000000000e+00 
7.3753082392332761e-02 3.7555579430901542e-03 6.2928014853207367e-10 
7.1626547765224813e-02 3.9992489329756780e-03 1.8592837538804992e-09 
7.3784609577489502e-02 -3.4986863331239650e-03 0.0000000000000000e+00 
7.3784605911282858e-02 -3.4986781364639450e-03 0.0000000000000000e+00 
7.1709403560563184e-02 -3.8344648453037889e-03 0.0000000000000000e+00 
7.1709410314155231e-02 -3.8344560004099919e-03 0.0000000000000000e+00 
7.3784618505317923e-02 -3.4986860519992421e-03 1.5220856897391677e-09 
7.1709411019938302e-02 -3.8344658554833747e-03 1.3122019346395984e-09 
7.7346480064635070e-02 3.2468276382445968e-03 0.0000000000000000e+00 
7.7346483064028096e-02 3.2468335362738827e-03 0.0000000000000000e+00 
7.5664020230800363e-02 3.4768517860341184e-03 0.0000000000000000e+00 
7.5664019894686810e-02 3.4768555259787701e-03 0.0000000000000000e+00 
7.7346471386737337e-02 3.2468292238854125e-03 -1.0104512688784354e-09 
7.5664016141674020e-02 3.4768505351970604e-03 -1.1386149265174634e-09 
7.7398338688533547e-02 -2.9239780732980567e-03 0.0000000000000000e+00 
7.7398347428158515e-02 -2.9239760156516978e-03 0.0000000000000000e+00 
7.5666935697463994e-02 -3.1844148226551272e-03 0.0000000000000000e+00 
7.5666932397163822e-02 -3.1844125430931258e-03 0.0000000000000000e+00 
7.7398351112042241e-02 -2.9239750483556932e-03 4.8347678307612753e-10 
7.5666938181774349e-02 -3.1844158934889715e-03 1.6259589442667747e-09 
8.0480408681287058e-02 3.0002702017002253e-03 0.0000000000000000e+00 
8.0480410607423586e-02 3.0002702280444351e-03 0.0000000000000000e+00 
7.8926988196275250e-02 3.1087881113776067e-03 0.0000000000000000e+00 
7.8926993091189682e-02 3.1087917714700706e-03 0.0000000000000000e+00 
8.0480401642819097e-02 3.0002705326734342e-03 4.9634236147161318e-10 
7.8926982730197756e-02 3.1087901230331580e-03 -5.1996081375377315e-10 
8.0547400211787218e-02 -2.5828644860370837e-03 0.0000000000000000e+00 
8.0547404328711963e-02 -2.5828567290009487e-03 0.0000000000000000e+00 
7.9022333372106485e-02 -2.7291040811435584e-03 0.0000000000000000e+00 
7.9022340844665029e-02 -2.7290970872752398e-03 0.0000000000000000e+00 
8.0547406889634909e-02 -2.5828549099794571e-03 6.1346987021091978e-10 
7.9022338588994878e-02 -2.7290965665626183e-03 1.1029017239003059e-09 
8.3372688973820969e-02 2.8191543448243131e-03 0.0000000000000000e+00 
8.3372683633437639e-02 2.8191603410555291e-03 0.0000000000000000e+00 
8.1971966761100967e-02 2.8998830478907220e-03 0.0000000000000000e+00 
8.1971963653807517e-02 2.8998851564223413e-03 0.0000000000000000e+00 
8.3372686212979746e-02 2.8191610204663098e-03 1.0782598853626341e-09 
8.1971960950211836e-02 2.8998863810908194e-03 6.1404772031595460e-11 
8.3402019732894156e-02 -2.3677318828768698e-03 0.0000000000000000e+00 
8.3402015161393173e-02 -2.3677291381572628e-03 0.0000000000000000e+00 
8.1990488823568144e-02 -2.4687876489381758e-03 0.0000000000000000e+00 
8.1990486238690624e-02 -2.4687808390220440e-03 0.0000000000000000e+00 
8.3402022384188451e-02 -2.3677280632300392e-03 -2.7404214853021956e-10 
8.1990485528315254e-02 -2.4687808485630964e-03 2.3209842440643936e-10 
8.5996978160482851e-02 2.7658597546588496e-03 0.0000000000000000e+00 
8.5996986572229206e-02 2.7658765152550448e-03 0.0000000000000000e+00 
8.4691288654979172e-02 2.7791094155809721e-03 0.0000000000000000e+00 
8.4691285854922846e-02 2.7791191738330370e-03 0.0000000000000000e+00 
8.5996981420185761e-02 2.7658677722241019e-03 2.3267287417999753e-09 
8.4691289912989520e-02 2.7791149119392343e-03 1.2248149112859087e-09 
8.6096363886168453e-02 -2.1206991858863829e-03 0.0000000000000000e+00 
8.6096362824133660e-02 -2.1207073448546616e-03 0.0000000000000000e+00 
8.4788565789112896e-02 -2.2534821899195838e-03 0.0000000000000000e+00 
8.4788558601272573e-02 -2.2534878997867132e-03 0.0000000000000000e+00 
8.6096361660386422e-02 -2.1207021913968675e-03 -1.8269659040265153e-09 
8.4788563488402843e-02 -2.2534802939426788e-03 -5.9353424561513018e-10 
8.8462899606990469e-02 2.7127143833491243e-03 0.0000000000000000e+00 
8.8462921553584165e-02 2.7127113617173588e-03 0.0000000000000000e+00 
8.7278289625839112e-02 2.7348538428257053e-03 0.0000000000000000e+00 
8.7278308932255050e-02 2.7348617304447037e-03 0.0000000000000000e+00 
8.8462916672731373e-02 2.7126994767579628e-03 8.6494196159271203e-10 
8.7278301194747582e-02 2.7348542511273144e-03 1.2215383148854735e-09 
8.8472701349244842e-02 -1.9395081330077493e-03 0.0000000000000000e+00 
8.8472716176223057e-02 -1.9395089528620880e-03 0.0000000000000000e+00 
8.7307768876787428e-02 -2.0086060029592743e-03 0.0000000000000000e+00 
8.7307782250309190e-02 -2.0086159476631190e-03 0.0000000000000000e+00 
8.8472701544608970e-02 -1.9395195406577367e-03 -2.7526486678166635e-09 
8.7307767926640911e-02 -2.0086143832507555e-03 -2.2892356034076637e-09 
9.0924779908336001e-02 2.7889331726608157e-03 0.0000000000000000e+00 
9.0917734437772457e-02 1.1761096699508442e-03 0.0000000000000000e+00 
9.0924766535453228e-02 2.7889155959686771e-03 0.0000000000000000e+00 
9.0917728041214910e-02 1.1761109763966668e-03 0.0000000000000000e+00 
8.9639448904136720e-02 2.7465965720188524e-03 0.0000000000000000e+00 
9.0918518908476714e-02 1.9840320422067712e-03 0.0000000000000000e+00 
8.9639452085532478e-02 2.7465848660384031e-03 0.0000000000000000e+00 
9.0918507836124651e-02 1.9840267307315398e-03 0.0000000000000000e+00 
9.0924750958650102e-02 2.7889000306331800e-03 -2.3821527495790686e-09 
9.0917720452023829e-02 1.1761133022628353e-03 -1.0379951822514369e-09 
8.9639445595317058e-02 2.7465706789171142e-03 -1.6361928465144530e-09 
9.0918494251895077e-02 1.9840211805054330e-03 -1.3739931407287243e-09 
9.0922438411660533e-02 -4.1041776168216628e-04 0.0000000000000000e+00 
9.0922440105856067e-02 -4.1041290796966660e-04 0.0000000000000000e+00 
9.0916321749030860e-02 3.7247094350246416e-04 0.0000000000000000e+00 
9.0916319900478423e-02 3.7247175246282060e-04 0.0000000000000000e+00 
9.0922446856250408e-02 -4.1041484412347712e-04 -7.1831714127057706e-10 
9.0916319931602874e-02 3.7247840132158640e-04 -2.9448940600012120e-10 
9.0930442076312901e-02 -1.9324140381264034e-03 0.0000000000000000e+00 
9.0930447158831418e-02 -1.9324168915618410e-03 0.0000000000000000e+00 
8.9674784000359400e-02 -1.9272378114984405e-03 0.0000000000000000e+00 
9.0928751269904712e-02 -1.1774553237128684e-03 0.0000000000000000e+00 
8.9674792616185106e-02 -1.9272390616453276e-03 0.0000000000000000e+00 
9.0928754323046479e-02 -1.1774546423678593e-03 0.0000000000000000e+00 
9.0930461069664764e-02 -1.9324345287345052e-03 -9.9853773718446105e-10 
8.9674788153818630e-02 -1.9272524529663055e-03 -1.0333544741341712e-09 
9.0928766263165650e-02 -1.1774631192152660e-03 -5.7722446587178274e-10 

VECTORS Stress float
0.0000000000000000e+00 0.0000000000000000e+00 0.0000000000000000e+00 
0.0000000000000000e+00 0.0000000000000000e+00 0.0000000000000000e+00 
0.0000000000000000e+00 0.0000000000000000e+00 0.0000000000000000e+00 
0.0000000000000000e+00 0.0000000000000000e+00 0.0000000000000000e+00 
0.0000000000000000e+00 0.0000000000000000e+00 0.0000000000000000e+00 
0.0000000000000000e+00 0.0000000000000000e+00 0.0000000000000000e+00 
0.0000000000000000e+00 0.0000000000000000e+00 0.0000000000000000e+00 
0.0000000000000000e+00 0.0000000000000000e+00 0.0000000000000000e+00 
0.0000000000000000e+00 0.0000000000000000e+00 0.0000000000000000e+00 
0.0000000000000000e+00 0.0000000000000000e+00 0.0000000000000000e+00 
0.0000000000000000e+00 0.0000000000000000e+00 0.0000000000000000e+00 
0.0000000000000000e+00 0.0000000000000000e+00 0.0000000000000000e+00 
0.0000000000000000e+00 0.0000000000000000e+00 0.0000000000000000e+00 
0.0000000000000000e+00 0.0000000000000000e+00 0.0000000000000000e+00 
0.0000000000000000e+00 0.0000000000000000e+00 0.0000000000000000e+00 
0.0000000000000000e+00 0.0000000000000000e+00 0.0000000000000000e+00 
0.0000000000000000e+00 0.0000000000000000e+00 0.0000000000000000e+00 
0.0000000000000000e+00 0.0000000000000000e+00 0.0000000000000000e+00 
0.0000000000000000e+00 0.0000000000000000e+00 0.0000000000000000e+00 
0.0000000000000000e+00 0.0000000000000000e+00 0.0000000000000000e+00 
0.0000000000000000e+00 0.0000000000000000e+00 0.0000000000000000e+00 
0.0000000000000000e+00 0.0000000000000000e+00 0.0000000000000000e+00 
0.0000000000000000e+00 0.0000000000000000e+00 0.0000000000000000e+00 
0.0000000000000000e+00 0.0000000000000000e+00 0.0000000000000000e+00 
0.0000000000000000e+00 0.0000000000000000e+00 0.0000000000000000e+00 
0.0000000000000000e+00 0.0000000000000000e+00 0.0000000000000000e+00 
0.0000000000000000e+00 0.0000000000000000e+00 0.0000000000000000e+00 
0.0000000000000000e+00 0.0000000000000000e+00 0.0000000000000000e+00 
0.0000000000000000e+00 0.0000000000000000e+00 0.0000000000000000e+00 
0.0000000000000000e+00 0.0000000000000000e+00 0.0000000000000000e+00 
0.0000000000000000e+00 0.0000000000000000e+00 0.0000000000000000e+00 
0.0000000000000000e+00 0.0000000000000000e+00 0.0000000000000000e+00 
0.0000000000000000e+00 0.0000000000000000e+00 0.0000000000000000e+00 
0.0000000000000000e+00 0.0000000000000000e+00 0.0000000000000000e+00 
0.0000000000000000e+00 0.0000000000000000e+00 0.0000000000000000e+00 
0.0000000000000000e+00 0.0000000000000000e+00 0.0000000000000000e+00 
0.0000000000000000e+00 0.0000000000000000e+00 0.0000000000000000e+00 
0.0000000000000000e+00 0.0000000000000000e+00 0.0000000000000000e+00 
0.0000000000000000e+00 0.0000000000000000e+00 0.0000000000000000e+00 
0.0000000000000000e+00 0.0000000000000000e+00 0.0000000000000000e+00 
0.0000000000000000e+00 0.0000000000000000e+00 0.0000000000000000e+00 
0.0000000000000000e+00 0.0000000000000000e+00 0.0000000000000000e+00 
0.0000000000000000e+00 0.0000000000000000e+00 0.0000000000000000e+00 
0.0000000000000000e+00 0.0000000000000000e+00 0.0000000000000000e+00 
0.0000000000000000e+00 0.0000000000000000e+00 0.0000000000000000e+00 
0.0000000000000000e+00 0.0000000000000000e+00 0.0000000000000000e+00 
0.0000000000000000e+00 0.0000000000000000e+00 0.0000000000000000e+00 
0.0000000000000000e+00 0.0000000000000000e+00 0.0000000000000000e+00 
0.0000000000000000e+00 0.0000000000000000e+00 0.0000000000000000e+00 
0.0000000000000000e+00 0.0000000000000000e+00 0.0000000000000000e+00 
0.0000000000000000e+00 0.0000000000000000e+00 0.0000000000000000e+00 
0.0000000000000000e+00 0.0000000000000000e+00 0.0000000000000000e+00 
0.0000000000000000e+00 0.0000000000000000e+00 0.0000000000000000e+00 
0.0000000000000000e+00 0.0000000000000000e+00 0.0000000000000000e+00 
0.0000000000000000e+00 0.0000000000000000e+00 0.0000000000000000e+00 
0.0000000000000000e+00 0.0000000000000000e+00 0.0000000000000000e+00 
0.0000000000000000e+00 0.0000000000000000e+00 0.0000000000000000e+00 
0.0000000000000000e+00 0.0000000000000000e+00 0.0000000000000000e+00 
0.0000000000000000e+00 0.0000000000000000e+00 0.0000000000000000e+00 
0.0000000000000000e+00 0.0000000000000000e+00 0.0000000000000000e+00 
0.0000000000000000e+00 0.0000000000000000e+00 0.0000000000000000e+00 
0.0000000000000000e+00 0.0000000000000000e+00 0.0000000000000000e+00 
0.0000000000000000e+00 0.0000000000000000e+00 0.0000000000000000e+00 
0.0000000000000000e+00 0.0000000000000000e+00 0.0000000000000000e+00 
0.0000000000000000e+00 0.0000000000000000e+00 0.0000000000000000e+00 
0.0000000000000000e+00 0.0000000000000000e+00 0.0000000000000000e+00 
0.0000000000000000e+00 0.0000000000000000e+00 0.0000000000000000e+00 
0.0000000000000000e+00 0.0000000000000000e+00 0.0000000000000000e+00 
0.0000000000000000e+00 0.0000000000000000e+00 0.0000000000000000e+00 
0.0000000000000000e+00 0.0000000000000000e+00 0.0000000000000000e+00 
0.0000000000000000e+00 0.0000000000000000e+00 0.0000000000000000e+00 
0.0000000000000000e+00 0.0000000000000000e+00 0.0000000000000000e+00 
0.0000000000000000e+00 0.0000000000000000e+00 0.0000000000000000e+00 
0.0000000000000000e+00 0.0000000000000000e+00 0.0000000000000000e+00 
0.0000000000000000e+00 0.0000000000000000e+00 0.0000000000000000e+00 
0.0000000000000000e+00 0.0000000000000000e+00 0.0000000000000000e+00 
0.0000000000000000e+00 0.0000000000000000e+00 0.0000000000000000e+00 
0.0000000000000000e+00 0.0000000000000000e+00 0.0000000000000000e+00 
0.0000000000000000e+00 0.0000000000000000e+00 0.0000000000000000e+00 
0.0000000000000000e+00 0.0000000000000000e+00 0.0000000000000000e+00 
0.0000000000000000e+00 0.0000000000000000e+00 0.0000000000000000e+00 
0.0000000000000000e+00 0.0000000000000000e+00 0.0000000000000000e+00 
0.0000000000000000e+00 0.0000000000000000e+00 0.0000000000000000e+00 
0.0000000000000000e+00 0.0000000000000000e+00 0.0000000000000000e+00 
0.0000000000000000e+00 0.0000000000000000e+00 0.0000000000000000e+00 
0.0000000000000000e+00 0.0000000000000000e+00 0.0000000000000000e+00 
0.0000000000000000e+00 0.0000000000000000e+00 0.0000000000000000e+00 
0.0000000000000000e+00 0.0000000000000000e+00 0.0000000000000000e+00 
0.0000000000000000e+00 0.0000000000000000e+00 0.0000000000000000e+00 
0.0000000000000000e+00 0.0000000000000000e+00 0.0000000000000000e+00 
0.0000000000000000e+00 0.0000000000000000e+00 0.0000000000000000e+00 
0.0000000000000000e+00 0.0000000000000000e+00 0.0000000000000000e+00 
0.0000000000000000e+00 0.0000000000000000e+00 0.0000000000000000e+00 
0.0000000000000000e+00 0.0000000000000000e+00 0.0000000000000000e+00 
0.0000000000000000e+00 0.0000000000000000e+00 0.0000000000000000e+00 
0.0000000000000000e+00 0.0000000000000000e+00 0.0000000000000000e+00 
0.0000000000000000e+00 0.0000000000000000e+00 0.0000000000000000e+00 
0.0000000000000000e+00 0.0000000000000000e+00 0.0000000000000000e+00 
0.0000000000000000e+00 0.0000000000000000e+00 0.0000000000000000e+00 
0.0000000000000000e+00 0.0000000000000000e+00 0.0000000000000000e+00 
0.0000000000000000e+00 0.0000000000000000e+00 0.0000000000000000e+00 
0.0000000000000000e+00 0.0000000000000000e+00 0.0000000000000000e+00 
0.0000000000000000e+00 0.0000000000000000e+00 0.0000000000000000e+00 
0.0000000000000000e+00 0.0000000000000000e+00 0.0000000000000000e+00 
0.0000000000000000e+00 0.0000000000000000e+00 0.0000000000000000e+00 
0.0000000000000000e+00 0.0000000000000000e+00 0.0000000000000000e+00 
0.0000000000000000e+00 0.0000000000000000e+00 0.0000000000000000e+00 
0.0000000000000000e+00 0.0000000000000000e+00 0.0000000000000000e+00 
0.0000000000000000e+00 0.0000000000000000e+00 0.0000000000000000e+00 
0.0000000000000000e+00 0.0000000000000000e+00 0.0000000000000000e+00 
0.0000000000000000e+00 0.0000000000000000e+00 0.0000000000000000e+00 
0.0000000000000000e+00 0.0000000000000000e+00 0.0000000000000000e+00 
0.0000000000000000e+00 0.0000000000000000e+00 0.0000000000000000e+00 
0.0000000000000000e+00 0.0000000000000000e+00 0.0000000000000000e+00 
0.0000000000000000e+00 0.0000000000000000e+00 0.0000000000000000e+00 
0.0000000000000000e+00 0.0000000000000000e+00 0.0000000000000000e+00 
0.0000000000000000e+00 0.0000000000000000e+00 0.0000000000000000e+00 
0.0000000000000000e+00 0.0000000000000000e+00 0.0000000000000000e+00 
0.0000000000000000e+00 0.0000000000000000e+00 0.0000000000000000e+00 
0.0000000000000000e+00 0.0000000000000000e+00 0.0000000000000000e+00 
0.0000000000000000e+00 0.0000000000000000e+00 0.0000000000000000e+00 
0.0000000000000000e+00 0.0000000000000000e+00 0.0000000000000000e+00 
0.0000000000000000e+00 0.0000000000000000e+00 0.0000000000000000e+00 
0.0000000000000000e+00 0.0000000000000000e+00 0.0000000000000000e+00 
0.0000000000000000e+00 0.0000000000000000e+00 0.0000000000000000e+00 
0.0000000000000000e+00 0.0000000000000000e+00 0.0000000000000000e+00 
0.0000000000000000e+00 0.0000000000000000e+00 0.0000000000000000e+00 
0.0000000000000000e+00 0.0000000000000000e+00 0.0000000000000000e+00 
0.0000000000000000e+00 0.0000000000000000e+00 0.0000000000000000e+00 
0.0000000000000000e+00 0.0000000000000000e+00 0.0000000000000000e+00 
0.0000000000000000e+00 0.0000000000000000e+00 0.0000000000000000e+00 
0.0000000000000000e+00 0.0000000000000000e+00 0.0000000000000000e+00 
0.0000000000000000e+00 0.0000000000000000e+00 0.0000000000000000e+00 
0.0000000000000000e+00 0.0000000000000000e+00 0.0000000000000000e+00 
0.0000000000000000e+00 0.0000000000000000e+00 0.0000000000000000e+00 
0.0000000000000000e+00 0.0000000000000000e+00 0.0000000000000000e+00 
0.0000000000000000e+00 0.0000000000000000e+00 0.0000000000000000e+00 
0.0000000000000000e+00 0.0000000000000000e+00 0.0000000000000000e+00 
0.0000000000000000e+00 0.0000000000000000e+00 0.0000000000000000e+00 
0.0000000000000000e+00 0.0000000000000000e+00 0.0000000000000000e+00 
0.0000000000000000e+00 0.0000000000000000e+00 0.0000000000000000e+00 
0.0000000000000000e+00 0.0000000000000000e+00 0.0000000000000000e+00 
0.0000000000000000e+00 0.0000000000000000e+00 0.0000000000000000e+00 
0.0000000000000000e+00 0.0000000000000000e+00 0.0000000000000000e+00 
0.0000000000000000e+00 0.0000000000000000e+00 0.0000000000000000e+00 
0.0000000000000000e+00 0.0000000000000000e+00 0.0000000000000000e+00 
0.0000000000000000e+00 0.0000000000000000e+00 0.0000000000000000e+00 
0.0000000000000000e+00 0.0000000000000000e+00 0.0000000000000000e+00 
0.0000000000000000e+00 0.0000000000000000e+00 0.0000000000000000e+00 
0.0000000000000000e+00 0.0000000000000000e+00 0.0000000000000000e+00 
0.0000000000000000e+00 0.0000000000000000e+00 0.0000000000000000e+00 
0.0000000000000000e+00 0.0000000000000000e+00 0.0000000000000000e+00 
0.0000000000000000e+00 0.0000000000000000e+00 0.0000000000000000e+00 
0.0000000000000000e+00 0.0000000000000000e+00 0.0000000000000000e+00 
0.0000000000000000e+00 0.0000000000000000e+00 0.0000000000000000e+00 
0.0000000000000000e+00 0.0000000000000000e+00 0.0000000000000000e+00 
0.0000000000000000e+00 0.0000000000000000e+00 0.0000000000000000e+00 
0.0000000000000000e+00 0.0000000000000000e+00 0.0000000000000000e+00 
0.0000000000000000e+00 0.0000000000000000e+00 0.0000000000000000e+00 
0.0000000000000000e+00 0.0000000000000000e+00 0.0000000000000000e+00 
0.0000000000000000e+00 0.0000000000000000e+00 0.0000000000000000e+00 
0.0000000000000000e+00 0.0000000000000000e+00 0.0000000000000000e+00 
0.0000000000000000e+00 0.0000000000000000e+00 0.0000000000000000e+00 
0.0000000000000000e+00 0.0000000000000000e+00 0.0000000000000000e+00 
0.0000000000000000e+00 0.0000000000000000e+00 0.0000000000000000e+00 
0.0000000000000000e+00 0.0000000000000000e+00 0.0000000000000000e+00 
0.0000000000000000e+00 0.0000000000000000e+00 0.0000000000000000e+00 
0.0000000000000000e+00 0.0000000000000000e+00 0.0000000000000000e+00 
0.0000000000000000e+00 0.0000000000000000e+00 0.0000000000000000e+00 
0.0000000000000000e+00 0.0000000000000000e+00 0.0000000000000000e+00 
0.0000000000000000e+00 0.0000000000000000e+00 0.0000000000000000e+00 
0.0000000000000000e+00 0.0000000000000000e+00 0.0000000000000000e+00 
0.0000000000000000e+00 0.0000000000000000e+00 0.0000000000000000e+00 
0.0000000000000000e+00 0.0000000000000000e+00 0.0000000000000000e+00 
0.0000000000000000e+00 0.0000000000000000e+00 0.0000000000000000e+00 
0.0000000000000000e+00 0.0000000000000000e+00 0.0000000000000000e+00 
0.0000000000000000e+00 0.0000000000000000e+00 0.0000000000000000e+00 
0.0000000000000000e+00 0.0000000000000000e+00 0.0000000000000000e+00 
0.0000000000000000e+00 0.0000000000000000e+00 0.0000000000000000e+00 
0.0000000000000000e+00 0.0000000000000000e+00 0.0000000000000000e+00 
0.0000000000000000e+00 0.0000000000000000e+00 0.0000000000000000e+00 
0.0000000000000000e+00 0.0000000000000000e+00 0.0000000000000000e+00 
0.0000000000000000e+00 0.0000000000000000e+00 0.0000000000000000e+00 
0.0000000000000000e+00 0.0000000000000000e+00 0.0000000000000000e+00 
0.0000000000000000e+00 0.0000000000000000e+00 0.0000000000000000e+00 
0.0000000000000000e+00 0.0000000000000000e+00 0.0000000000000000e+00 
0.0000000000000000e+00 0.0000000000000000e+00 0.0000000000000000e+00 
0.0000000000000000e+00 0.0000000000000000e+00 0.0000000000000000e+00 
0.0000000000000000e+00 0.0000000000000000e+00 0.0000000000000000e+00 
0.0000000000000000e+00 0.0000000000000000e+00 0.0000000000000000e+00 
0.0000000000000000e+00 0.0000000000000000e+00 0.0000000000000000e+00 
0.0000000000000000e+00 0.0000000000000000e+00 0.0000000000000000e+00 
0.0000000000000000e+00 0.0000000000000000e+00 0.0000000000000000e+00 
0.0000000000000000e+00 0.0000000000000000e+00 0.0000000000000000e+00 
0.0000000000000000e+00 0.0000000000000000e+00 0.0000000000000000e+00 
0.0000000000000000e+00 0.0000000000000000e+00 0.0000000000000000e+00 
0.0000000000000000e+00 0.0000000000000000e+00 0.0000000000000000e+00 
0.0000000000000000e+00 0.0000000000000000e+00 0.0000000000000000e+00 
0.0000000000000000e+00 0.0000000000000000e+00 0.0000000000000000e+00 
0.0000000000000000e+00 0.0000000000000000e+00 0.0000000000000000e+00 
0.0000000000000000e+00 0.0000000000000000e+00 0.0000000000000000e+00 
0.0000000000000000e+00 0.0000000000000000e+00 0.0000000000000000e+00 
0.0000000000000000e+00 0.0000000000000000e+00 0.0000000000000000e+00 
0.0000000000000000e+00 0.0000000000000000e+00 0.0000000000000000e+00 
0.0000000000000000e+00 0.0000000000000000e+00 0.0000000000000000e+00 
0.0000000000000000e+00 0.0000000000000000e+00 0.0000000000000000e+00 
0.0000000000000000e+00 0.0000000000000000e+00 0.0000000000000000e+00 
0.0000000000000000e+00 0.0000000000000000e+00 0.0000000000000000e+00 
0.0000000000000000e+00 0.0000000000000000e+00 0.0000000000000000e+00 
0.0000000000000000e+00 0.0000000000000000e+00 0.0000000000000000e+00 
0.0000000000000000e+00 0.0000000000000000e+00 0.0000000000000000e+00 
0.0000000000000000e+00 0.0000000000000000e+00 0.0000000000000000e+00 
0.0000000000000000e+00 0.0000000000000000e+00 0.0000000000000000e+00 
0.0000000000000000e+00 0.0000000000000000e+00 0.0000000000000000e+00 
0.0000000000000000e+00 0.0000000000000000e+00 0.0000000000000000e+00 
0.0000000000000000e+00 0.0000000000000000e+00 0.0000000000000000e+00 
0.0000000000000000e+00 0.0000000000000000e+00 0.0000000000000000e+00 
0.0000000000000000e+00 0.0000000000000000e+00 0.0000000000000000e+00 
0.0000000000000000e+00 0.0000000000000000e+00 0.0000000000000000e+00 
0.0000000000000000e+00 0.0000000000000000e+00 0.0000000000000000e+00 
0.0000000000000000e+00 0.0000000000000000e+00 0.0000000000000000e+00 
0.0000000000000000e+00 0.0000000000000000e+00 0.0000000000000000e+00 
0.0000000000000000e+00 0.0000000000000000e+00 0.0000000000000000e+00 
0.0000000000000000e+00 0.0000000000000000e+00 0.0000000000000000e+00 
0.0000000000000000e+00 0.0000000000000000e+00 0.0000000000000000e+00 
0.0000000000000000e+00 0.0000000000000000e+00 0.0000000000000000e+00 
0.0000000000000000e+00 0.0000000000000000e+00 0.0000000000000000e+00 
0.0000000000000000e+00 0.0000000000000000e+00 0.0000000000000000e+00 
0.0000000000000000e+00 0.0000000000000000e+00 0.0000000000000000e+00 
0.0000000000000000e+00 0.0000000000000000e+00 0.0000000000000000e+00 
0.0000000000000000e+00 0.0000000000000000e+00 0.0000000000000000e+00 
0.0000000000000000e+00 0.0000000000000000e+00 0.0000000000000000e+00 
0.0000000000000000e+00 0.0000000000000000e+00 0.0000000000000000e+00 
0.0000000000000000e+00 0.0000000000000000e+00 0.0000000000000000e+00 
0.0000000000000000e+00 0.0000000000000000e+00 0.0000000000000000e+00 
0.0000000000000000e+00 0.0000000000000000e+00 0.0000000000000000e+00 
0.0000000000000000e+00 0.0000000000000000e+00 0.0000000000000000e+00 

