# vtk DataFile Version 2.0

ASCII

DATASET UNSTRUCTURED_GRID

POINTS 79 float 

-5.0000000000000003e-02  0.0000000000000000e+00  0.0000000000000000e+00
-5.0000000000000003e-02  5.5555555555555552e-02  0.0000000000000000e+00
-5.0000000000000003e-02  2.7777777777777776e-02  0.0000000000000000e+00
5.0000000000000003e-02  0.0000000000000000e+00  0.0000000000000000e+00
5.0000000000000003e-02  5.5555555555555552e-02  0.0000000000000000e+00
5.0000000000000003e-02  2.7777777777777776e-02  0.0000000000000000e+00
-5.0000000000000003e-02  1.1111111111111110e-01  0.0000000000000000e+00
-5.0000000000000003e-02  8.3333333333333329e-02  0.0000000000000000e+00
5.0000000000000003e-02  1.1111111111111110e-01  0.0000000000000000e+00
5.0000000000000003e-02  8.3333333333333329e-02  0.0000000000000000e+00
-5.0000000000000003e-02  1.6666666666666666e-01  0.0000000000000000e+00
-5.0000000000000003e-02  1.3888888888888890e-01  0.0000000000000000e+00
5.0000000000000003e-02  1.6666666666666666e-01  0.0000000000000000e+00
5.0000000000000003e-02  1.3888888888888890e-01  0.0000000000000000e+00
-5.0000000000000003e-02  2.2222222222222221e-01  0.0000000000000000e+00
-5.0000000000000003e-02  1.9444444444444442e-01  0.0000000000000000e+00
5.0000000000000003e-02  2.2222222222222221e-01  0.0000000000000000e+00
5.0000000000000003e-02  1.9444444444444442e-01  0.0000000000000000e+00
-5.0000000000000003e-02  2.7777777777777779e-01  0.0000000000000000e+00
-5.0000000000000003e-02  2.5000000000000000e-01  0.0000000000000000e+00
5.0000000000000003e-02  2.7777777777777779e-01  0.0000000000000000e+00
5.0000000000000003e-02  2.5000000000000000e-01  0.0000000000000000e+00
-5.0000000000000003e-02  3.3333333333333331e-01  0.0000000000000000e+00
-5.0000000000000003e-02  3.0555555555555558e-01  0.0000000000000000e+00
5.0000000000000003e-02  3.3333333333333331e-01  0.0000000000000000e+00
5.0000000000000003e-02  3.0555555555555558e-01  0.0000000000000000e+00
-5.0000000000000003e-02  3.8888888888888884e-01  0.0000000000000000e+00
-5.0000000000000003e-02  3.6111111111111105e-01  0.0000000000000000e+00
5.0000000000000003e-02  3.8888888888888884e-01  0.0000000000000000e+00
5.0000000000000003e-02  3.6111111111111105e-01  0.0000000000000000e+00
-5.0000000000000003e-02  4.4444444444444442e-01  0.0000000000000000e+00
-5.0000000000000003e-02  4.1666666666666663e-01  0.0000000000000000e+00
5.0000000000000003e-02  4.4444444444444442e-01  0.0000000000000000e+00
5.0000000000000003e-02  4.1666666666666663e-01  0.0000000000000000e+00
-5.0000000000000003e-02  5.0000000000000000e-01  0.0000000000000000e+00
-5.0000000000000003e-02  4.7222222222222221e-01  0.0000000000000000e+00
5.0000000000000003e-02  5.0000000000000000e-01  0.0000000000000000e+00
5.0000000000000003e-02  4.7222222222222221e-01  0.0000000000000000e+00
-5.0000000000000003e-02  5.5555555555555558e-01  0.0000000000000000e+00
-5.0000000000000003e-02  5.2777777777777779e-01  0.0000000000000000e+00
5.0000000000000003e-02  5.5555555555555558e-01  0.0000000000000000e+00
5.0000000000000003e-02  5.2777777777777779e-01  0.0000000000000000e+00
-5.0000000000000003e-02  6.1111111111111105e-01  0.0000000000000000e+00
-5.0000000000000003e-02  5.8333333333333326e-01  0.0000000000000000e+00
5.0000000000000003e-02  6.1111111111111105e-01  0.0000000000000000e+00
5.0000000000000003e-02  5.8333333333333326e-01  0.0000000000000000e+00
-5.0000000000000003e-02  6.6666666666666663e-01  0.0000000000000000e+00
-5.0000000000000003e-02  6.3888888888888884e-01  0.0000000000000000e+00
5.0000000000000003e-02  6.6666666666666663e-01  0.0000000000000000e+00
5.0000000000000003e-02  6.3888888888888884e-01  0.0000000000000000e+00
-5.0000000000000003e-02  7.2222222222222221e-01  0.0000000000000000e+00
-5.0000000000000003e-02  6.9444444444444442e-01  0.0000000000000000e+00
5.0000000000000003e-02  7.2222222222222221e-01  0.0000000000000000e+00
5.0000000000000003e-02  6.9444444444444442e-01  0.0000000000000000e+00
-5.0000000000000003e-02  7.7777777777777768e-01  0.0000000000000000e+00
-5.0000000000000003e-02  7.5000000000000000e-01  0.0000000000000000e+00
5.0000000000000003e-02  7.7777777777777768e-01  0.0000000000000000e+00
5.0000000000000003e-02  7.5000000000000000e-01  0.0000000000000000e+00
-5.0000000000000003e-02  8.3333333333333326e-01  0.0000000000000000e+00
-5.0000000000000003e-02  8.0555555555555547e-01  0.0000000000000000e+00
5.0000000000000003e-02  8.3333333333333326e-01  0.0000000000000000e+00
5.0000000000000003e-02  8.0555555555555547e-01  0.0000000000000000e+00
-5.0000000000000003e-02  8.8888888888888884e-01  0.0000000000000000e+00
-5.0000000000000003e-02  8.6111111111111105e-01  0.0000000000000000e+00
5.0000000000000003e-02  8.8888888888888884e-01  0.0000000000000000e+00
5.0000000000000003e-02  8.6111111111111105e-01  0.0000000000000000e+00
-5.0000000000000003e-02  9.4444444444444442e-01  0.0000000000000000e+00
-5.0000000000000003e-02  9.1666666666666663e-01  0.0000000000000000e+00
5.0000000000000003e-02  9.4444444444444442e-01  0.0000000000000000e+00
5.0000000000000003e-02  9.1666666666666663e-01  0.0000000000000000e+00
-5.0000000000000003e-02  1.0000000000000000e+00  0.0000000000000000e+00
-1.6666666666666670e-02  1.0000000000000000e+00  0.0000000000000000e+00
-5.0000000000000003e-02  9.7222222222222221e-01  0.0000000000000000e+00
-3.3333333333333340e-02  1.0000000000000000e+00  0.0000000000000000e+00
1.6666666666666663e-02  1.0000000000000000e+00  0.0000000000000000e+00
-3.4694469519536142e-18  1.0000000000000000e+00  0.0000000000000000e+00
5.0000000000000003e-02  1.0000000000000000e+00  0.0000000000000000e+00
5.0000000000000003e-02  9.7222222222222221e-01  0.0000000000000000e+00
3.3333333333333333e-02  1.0000000000000000e+00  0.0000000000000000e+00

CELLS 0 0


CELL_TYPES 0


POINT_DATA 79

VECTORS VertexNormals float

0.0000000000000000e+00 0.0000000000000000e+00 0
0.0000000000000000e+00 0.0000000000000000e+00 0
0.0000000000000000e+00 0.0000000000000000e+00 0
0.0000000000000000e+00 0.0000000000000000e+00 0
0.0000000000000000e+00 0.0000000000000000e+00 0
0.0000000000000000e+00 0.0000000000000000e+00 0
0.0000000000000000e+00 0.0000000000000000e+00 0
0.0000000000000000e+00 0.0000000000000000e+00 0
0.0000000000000000e+00 0.0000000000000000e+00 0
0.0000000000000000e+00 0.0000000000000000e+00 0
0.0000000000000000e+00 0.0000000000000000e+00 0
0.0000000000000000e+00 0.0000000000000000e+00 0
0.0000000000000000e+00 0.0000000000000000e+00 0
0.0000000000000000e+00 0.0000000000000000e+00 0
0.0000000000000000e+00 0.0000000000000000e+00 0
0.0000000000000000e+00 0.0000000000000000e+00 0
0.0000000000000000e+00 0.0000000000000000e+00 0
0.0000000000000000e+00 0.0000000000000000e+00 0
0.0000000000000000e+00 0.0000000000000000e+00 0
0.0000000000000000e+00 0.0000000000000000e+00 0
0.0000000000000000e+00 0.0000000000000000e+00 0
0.0000000000000000e+00 0.0000000000000000e+00 0
0.0000000000000000e+00 0.0000000000000000e+00 0
0.0000000000000000e+00 0.0000000000000000e+00 0
0.0000000000000000e+00 0.0000000000000000e+00 0
0.0000000000000000e+00 0.0000000000000000e+00 0
0.0000000000000000e+00 0.0000000000000000e+00 0
0.0000000000000000e+00 0.0000000000000000e+00 0
0.0000000000000000e+00 0.0000000000000000e+00 0
0.0000000000000000e+00 0.0000000000000000e+00 0
0.0000000000000000e+00 0.0000000000000000e+00 0
0.0000000000000000e+00 0.0000000000000000e+00 0
0.0000000000000000e+00 0.0000000000000000e+00 0
0.0000000000000000e+00 0.0000000000000000e+00 0
0.0000000000000000e+00 0.0000000000000000e+00 0
0.0000000000000000e+00 0.0000000000000000e+00 0
0.0000000000000000e+00 0.0000000000000000e+00 0
0.0000000000000000e+00 0.0000000000000000e+00 0
0.0000000000000000e+00 0.0000000000000000e+00 0
0.0000000000000000e+00 0.0000000000000000e+00 0
0.0000000000000000e+00 0.0000000000000000e+00 0
0.0000000000000000e+00 0.0000000000000000e+00 0
0.0000000000000000e+00 0.0000000000000000e+00 0
0.0000000000000000e+00 0.0000000000000000e+00 0
0.0000000000000000e+00 0.0000000000000000e+00 0
0.0000000000000000e+00 0.0000000000000000e+00 0
0.0000000000000000e+00 0.0000000000000000e+00 0
0.0000000000000000e+00 0.0000000000000000e+00 0
0.0000000000000000e+00 0.0000000000000000e+00 0
0.0000000000000000e+00 0.0000000000000000e+00 0
0.0000000000000000e+00 0.0000000000000000e+00 0
0.0000000000000000e+00 0.0000000000000000e+00 0
0.0000000000000000e+00 0.0000000000000000e+00 0
0.0000000000000000e+00 0.0000000000000000e+00 0
0.0000000000000000e+00 0.0000000000000000e+00 0
0.0000000000000000e+00 0.0000000000000000e+00 0
0.0000000000000000e+00 0.0000000000000000e+00 0
0.0000000000000000e+00 0.0000000000000000e+00 0
0.0000000000000000e+00 0.0000000000000000e+00 0
0.0000000000000000e+00 0.0000000000000000e+00 0
0.0000000000000000e+00 0.0000000000000000e+00 0
0.0000000000000000e+00 0.0000000000000000e+00 0
0.0000000000000000e+00 0.0000000000000000e+00 0
0.0000000000000000e+00 0.0000000000000000e+00 0
0.0000000000000000e+00 0.0000000000000000e+00 0
0.0000000000000000e+00 0.0000000000000000e+00 0
0.0000000000000000e+00 0.0000000000000000e+00 0
0.0000000000000000e+00 0.0000000000000000e+00 0
0.0000000000000000e+00 0.0000000000000000e+00 0
0.0000000000000000e+00 0.0000000000000000e+00 0
0.0000000000000000e+00 0.0000000000000000e+00 0
0.0000000000000000e+00 0.0000000000000000e+00 0
0.0000000000000000e+00 0.0000000000000000e+00 0
0.0000000000000000e+00 0.0000000000000000e+00 0
0.0000000000000000e+00 0.0000000000000000e+00 0
0.0000000000000000e+00 0.0000000000000000e+00 0
0.0000000000000000e+00 0.0000000000000000e+00 0
0.0000000000000000e+00 0.0000000000000000e+00 0
0.0000000000000000e+00 0.0000000000000000e+00 0

VECTORS Displacement float
0.0000000000000000e+00 0.0000000000000000e+00 0
2.8556755823823709e-03 2.9169335561798088e-03 0
1.2626845323739640e-03 1.6100453784004109e-03 0
0.0000000000000000e+00 0.0000000000000000e+00 0
2.7578134986959986e-03 -2.9077654623770243e-03 0
1.1957795210866674e-03 -1.5810570566041646e-03 0
7.8305852871463476e-03 4.9202949080414012e-03 0
5.0792506405706629e-03 4.0182419074926224e-03 0
7.8245571428013222e-03 -4.9308592859756886e-03 0
5.0375739116392242e-03 -4.0334315355951373e-03 0
1.4563714121346117e-02 6.0908817424918495e-03 0
1.1078473298895169e-02 5.5918439773395678e-03 0
1.4508168742270573e-02 -6.1139043902702916e-03 0
1.1039586129198430e-02 -5.5988923542276189e-03 0
2.2064298988811005e-02 6.6977713472728545e-03 0
1.8222614354307536e-02 6.4521637101734031e-03 0
2.2106700375243378e-02 -6.6781009232194698e-03 0
1.8218456096235042e-02 -6.4723496490029613e-03 0
2.9833871189480044e-02 6.8340550344053843e-03 0
2.5963365062376689e-02 6.8029281240367364e-03 0
2.9758896065197032e-02 -6.7935246013990508e-03 0
2.5958168116687313e-02 -6.7494597028666010e-03 0
3.7545294619242948e-02 6.8636183119331123e-03 0
3.3687398130899535e-02 6.8469661951430991e-03 0
3.7532034708097670e-02 -6.8840693058969827e-03 0
3.3618434979157383e-02 -6.8526941374376510e-03 0
4.5367644625920397e-02 6.7984213693213814e-03 0
4.1458085531828753e-02 6.8595672567771781e-03 0
4.5249713208614512e-02 -6.7565843995923813e-03 0
4.1417745299011502e-02 -6.8444907493275618e-03 0
5.2931952508287951e-02 6.4538155108098336e-03 0
4.9201210686399405e-02 6.6666883150660631e-03 0
5.2893636932124025e-02 -6.3340572516732332e-03 0
4.9105006466385492e-02 -6.6028389426918965e-03 0
5.9760926054090613e-02 5.8098562297094810e-03 0
5.6464634187040098e-02 6.1450463988747201e-03 0
5.9684769139393273e-02 -5.6593419000282395e-03 0
5.6417166825094761e-02 -5.9830271534530889e-03 0
6.5795854382891858e-02 5.2179722829835302e-03 0
6.2869071195669438e-02 5.4962635565954637e-03 0
6.5729007487571017e-02 -5.0531030531386252e-03 0
6.2790096260472231e-02 -5.3637698520217127e-03 0
7.1218312469975023e-02 4.7265255786593900e-03 0
6.8574191823620761e-02 4.9773054630942865e-03 0
7.1127778309633793e-02 -4.3865107073513335e-03 0
6.8509673116307818e-02 -4.7269043817543786e-03 0
7.5897252565172380e-02 4.1611936424611872e-03 0
7.3666819806638140e-02 4.4389362117275471e-03 0
7.5787642798798696e-02 -3.7691069579240295e-03 0
7.3542791963235168e-02 -4.0577186077996250e-03 0
7.9902689969400476e-02 3.7570803316979793e-03 0
7.7959017268889513e-02 3.9364260596181323e-03 0
7.9851436775378148e-02 -3.2442596705561317e-03 0
7.7906335055583822e-02 -3.4986706551917574e-03 0
8.3576951827969787e-02 3.5241920177461507e-03 0
8.1769425908223531e-02 3.6264306191146102e-03 0
8.3438276116812371e-02 -2.8889290970675243e-03 0
8.1652827986586130e-02 -3.0532412042906052e-03 0
8.6902542544317951e-02 3.3120043360501269e-03 0
8.5298072146556700e-02 3.4126381357311168e-03 0
8.6860968624144552e-02 -2.4781836212636266e-03 0
8.5214482789393003e-02 -2.6920882429392126e-03 0
8.9973061745105609e-02 3.2074014853583771e-03 0
8.8449794224097961e-02 3.2531829493629445e-03 0
8.9821192580914505e-02 -2.2565388996829178e-03 0
8.8354348978452554e-02 -2.3242047354195537e-03 0
9.2953529616427583e-02 3.1732221991168704e-03 0
9.1456750771581136e-02 3.1807285301176345e-03 0
9.2899590265079518e-02 -2.1867324147410356e-03 0
9.1348348393611584e-02 -2.2272579126639156e-03 0
9.5971394566853663e-02 3.2064184952044238e-03 0
9.5942644847233582e-02 1.4119359447726497e-03 0
9.4466021219630852e-02 3.1883089633407882e-03 0
9.5962387536066271e-02 2.3060412884736976e-03 0
9.5871856042935993e-02 -3.7032006285341056e-04 0
9.5911944214610440e-02 5.1573802037827954e-04 0
9.5827115106590116e-02 -2.0867783957683006e-03 0
9.4393453762874807e-02 -2.1267256995342087e-03 0
9.5840431637214521e-02 -1.2341212649761720e-03 0

VECTORS Stress float
1.2652339285719208e+02 -3.4879855929925306e+01 0
1.1085514488689768e+02 -2.3203055644777328e+00 0
1.1467626121266902e+02 -8.9575196945125466e+00 0
7.0577985403624780e+01 -3.1660438877379889e+01 0
5.3372340517142341e+01 1.0790705920149850e+00 0
5.7574010194001836e+01 -6.2024563627426428e+00 0
1.1337721234476632e+02 -1.2432587267093567e+01 0
1.1192722731862399e+02 -7.0607940365984989e+00 0
5.5812203245681609e+01 -6.8159472498239948e+00 0
5.4355789109957747e+01 -2.4943785290727556e+00 0
1.1275835393359614e+02 -1.4254270381676486e+01 0
1.1318523529693788e+02 -1.3809080901674402e+01 0
5.5468629845598379e+01 -7.2470961784819448e+00 0
5.5757852658221815e+01 -7.4249456679064609e+00 0
1.1221826683621236e+02 -1.5378742003988885e+01 0
1.1240795124493762e+02 -1.4812731222528805e+01 0
5.6011180388086984e+01 -7.6676330473114174e+00 0
5.5640855132020121e+01 -7.3911044644448385e+00 0
1.1153429403590189e+02 -1.5450446006399646e+01 0
1.1192399692798519e+02 -1.5566000726353622e+01 0
5.7250462328495267e+01 -7.9308270829548722e+00 0
5.6571792630041713e+01 -7.8494830431154838e+00 0
1.1040820570514373e+02 -1.5359141868098245e+01 0
1.1108742392261509e+02 -1.5352178326995361e+01 0
5.8987848126449450e+01 -8.1087632848107667e+00 0
5.8020563676045306e+01 -8.0103841541590590e+00 0
1.0885563858315521e+02 -1.5107478354307300e+01 0
1.0971362365516917e+02 -1.5348295058745972e+01 0
6.1150989337749792e+01 -8.3097581560791305e+00 0
5.9987457550051531e+01 -8.2093046371915825e+00 0
1.0698801242073591e+02 -1.3970300264740725e+01 0
1.0795072756997034e+02 -1.4657875711593512e+01 0
6.3714077514872457e+01 -8.1542019557989711e+00 0
6.2377870813805245e+01 -8.3241962318381120e+00 0
1.0476476913045897e+02 -1.2096128713960276e+01 0
1.0591320733107659e+02 -1.3054425554758229e+01 0
6.6599093696693814e+01 -7.4093618996645176e+00 0
6.5178186307766993e+01 -7.8004251766408252e+00 0
1.0188975279520405e+02 -1.0453103217521740e+01 0
1.0339629408874308e+02 -1.1260044965062665e+01 0
6.9318063680143027e+01 -6.8870872404527113e+00 0
6.8011417983164080e+01 -7.1394223302198618e+00 0
9.8331999825346799e+01 -8.8624278500298388e+00 0
1.0020600408474165e+02 -9.6657340537425540e+00 0
7.1732474829797837e+01 -6.2408002554066400e+00 0
7.0570012736218857e+01 -6.5934956152547599e+00 0
9.3966671867173375e+01 -7.2504714078709043e+00 0
9.6267980581967464e+01 -8.0379424867275802e+00 0
7.3671522756855495e+01 -5.5308040594850638e+00 0
7.2758577602872805e+01 -5.8670067638714869e+00 0
8.8404831973254716e+01 -5.8746432687867909e+00 0
9.1372372781069828e+01 -6.4641298262640419e+00 0
7.4911320812073427e+01 -4.9316396848582329e+00 0
7.4378622798379240e+01 -5.1842687925540929e+00 0
8.1235270665222799e+01 -5.1087174604235344e+00 0
8.5028253702809963e+01 -5.3665451989952118e+00 0
7.5556311450596866e+01 -4.6815768590977456e+00 0
7.5249122719579447e+01 -4.7094118714983608e+00 0
7.1807854461162407e+01 -3.8213239514553052e+00 0
7.6917073343591170e+01 -4.9459671563315410e+00 0
7.5410881764180345e+01 -4.0650694312653215e+00 0
7.5791195639276992e+01 -4.7321035495503168e+00 0
5.8445728104257562e+01 -2.0647201076411648e-01 0
6.5663889686952587e+01 -8.3778571809894231e-01 0
7.3458119325998126e+01 -1.9589484966534059e+00 0
7.4026549884934639e+01 -2.1091601025855482e+00 0
3.8769032971898199e+01 -2.2909179792650455e+01 0
5.0161453340491619e+01 -1.3055724895126666e+01 0
8.3586018802344924e+01 -1.8727499987046293e+01 0
7.9105419673325656e+01 -1.1666759174063607e+01 0
2.4574812715862748e+00 1.1839183676874285e+02 0
7.2190909928515339e+00 1.1808664644630660e+02 0
2.3042351455074083e+01 1.4456465759289621e+01 0
6.9550603093878252e+00 1.2544043129600296e+02 0
3.9271827623486075e+00 9.4999726152988401e+01 0
5.7444280549493669e+00 1.0616551967685531e+02 0
1.1992106831718964e+01 7.8571562815157563e+01 0
6.4759783798831336e+01 6.2277453826047520e+00 0
4.3045315332142522e+00 8.5542912251630057e+01 0

