# vtk DataFile Version 2.0

ASCII

DATASET UNSTRUCTURED_GRID

POINTS 79 float 

-5.0000000000000003e-02  0.0000000000000000e+00  0.0000000000000000e+00
-5.0000000000000003e-02  5.5555555555555552e-02  0.0000000000000000e+00
-5.0000000000000003e-02  2.7777777777777776e-02  0.0000000000000000e+00
5.0000000000000003e-02  0.0000000000000000e+00  0.0000000000000000e+00
5.0000000000000003e-02  5.5555555555555552e-02  0.0000000000000000e+00
5.0000000000000003e-02  2.7777777777777776e-02  0.0000000000000000e+00
-5.0000000000000003e-02  1.1111111111111110e-01  0.0000000000000000e+00
-5.0000000000000003e-02  8.3333333333333329e-02  0.0000000000000000e+00
5.0000000000000003e-02  1.1111111111111110e-01  0.0000000000000000e+00
5.0000000000000003e-02  8.3333333333333329e-02  0.0000000000000000e+00
-5.0000000000000003e-02  1.6666666666666666e-01  0.0000000000000000e+00
-5.0000000000000003e-02  1.3888888888888890e-01  0.0000000000000000e+00
5.0000000000000003e-02  1.6666666666666666e-01  0.0000000000000000e+00
5.0000000000000003e-02  1.3888888888888890e-01  0.0000000000000000e+00
-5.0000000000000003e-02  2.2222222222222221e-01  0.0000000000000000e+00
-5.0000000000000003e-02  1.9444444444444442e-01  0.0000000000000000e+00
5.0000000000000003e-02  2.2222222222222221e-01  0.0000000000000000e+00
5.0000000000000003e-02  1.9444444444444442e-01  0.0000000000000000e+00
-5.0000000000000003e-02  2.7777777777777779e-01  0.0000000000000000e+00
-5.0000000000000003e-02  2.5000000000000000e-01  0.0000000000000000e+00
5.0000000000000003e-02  2.7777777777777779e-01  0.0000000000000000e+00
5.0000000000000003e-02  2.5000000000000000e-01  0.0000000000000000e+00
-5.0000000000000003e-02  3.3333333333333331e-01  0.0000000000000000e+00
-5.0000000000000003e-02  3.0555555555555558e-01  0.0000000000000000e+00
5.0000000000000003e-02  3.3333333333333331e-01  0.0000000000000000e+00
5.0000000000000003e-02  3.0555555555555558e-01  0.0000000000000000e+00
-5.0000000000000003e-02  3.8888888888888884e-01  0.0000000000000000e+00
-5.0000000000000003e-02  3.6111111111111105e-01  0.0000000000000000e+00
5.0000000000000003e-02  3.8888888888888884e-01  0.0000000000000000e+00
5.0000000000000003e-02  3.6111111111111105e-01  0.0000000000000000e+00
-5.0000000000000003e-02  4.4444444444444442e-01  0.0000000000000000e+00
-5.0000000000000003e-02  4.1666666666666663e-01  0.0000000000000000e+00
5.0000000000000003e-02  4.4444444444444442e-01  0.0000000000000000e+00
5.0000000000000003e-02  4.1666666666666663e-01  0.0000000000000000e+00
-5.0000000000000003e-02  5.0000000000000000e-01  0.0000000000000000e+00
-5.0000000000000003e-02  4.7222222222222221e-01  0.0000000000000000e+00
5.0000000000000003e-02  5.0000000000000000e-01  0.0000000000000000e+00
5.0000000000000003e-02  4.7222222222222221e-01  0.0000000000000000e+00
-5.0000000000000003e-02  5.5555555555555558e-01  0.0000000000000000e+00
-5.0000000000000003e-02  5.2777777777777779e-01  0.0000000000000000e+00
5.0000000000000003e-02  5.5555555555555558e-01  0.0000000000000000e+00
5.0000000000000003e-02  5.2777777777777779e-01  0.0000000000000000e+00
-5.0000000000000003e-02  6.1111111111111105e-01  0.0000000000000000e+00
-5.0000000000000003e-02  5.8333333333333326e-01  0.0000000000000000e+00
5.0000000000000003e-02  6.1111111111111105e-01  0.0000000000000000e+00
5.0000000000000003e-02  5.8333333333333326e-01  0.0000000000000000e+00
-5.0000000000000003e-02  6.6666666666666663e-01  0.0000000000000000e+00
-5.0000000000000003e-02  6.3888888888888884e-01  0.0000000000000000e+00
5.0000000000000003e-02  6.6666666666666663e-01  0.0000000000000000e+00
5.0000000000000003e-02  6.3888888888888884e-01  0.0000000000000000e+00
-5.0000000000000003e-02  7.2222222222222221e-01  0.0000000000000000e+00
-5.0000000000000003e-02  6.9444444444444442e-01  0.0000000000000000e+00
5.0000000000000003e-02  7.2222222222222221e-01  0.0000000000000000e+00
5.0000000000000003e-02  6.9444444444444442e-01  0.0000000000000000e+00
-5.0000000000000003e-02  7.7777777777777768e-01  0.0000000000000000e+00
-5.0000000000000003e-02  7.5000000000000000e-01  0.0000000000000000e+00
5.0000000000000003e-02  7.7777777777777768e-01  0.0000000000000000e+00
5.0000000000000003e-02  7.5000000000000000e-01  0.0000000000000000e+00
-5.0000000000000003e-02  8.3333333333333326e-01  0.0000000000000000e+00
-5.0000000000000003e-02  8.0555555555555547e-01  0.0000000000000000e+00
5.0000000000000003e-02  8.3333333333333326e-01  0.0000000000000000e+00
5.0000000000000003e-02  8.0555555555555547e-01  0.0000000000000000e+00
-5.0000000000000003e-02  8.8888888888888884e-01  0.0000000000000000e+00
-5.0000000000000003e-02  8.6111111111111105e-01  0.0000000000000000e+00
5.0000000000000003e-02  8.8888888888888884e-01  0.0000000000000000e+00
5.0000000000000003e-02  8.6111111111111105e-01  0.0000000000000000e+00
-5.0000000000000003e-02  9.4444444444444442e-01  0.0000000000000000e+00
-5.0000000000000003e-02  9.1666666666666663e-01  0.0000000000000000e+00
5.0000000000000003e-02  9.4444444444444442e-01  0.0000000000000000e+00
5.0000000000000003e-02  9.1666666666666663e-01  0.0000000000000000e+00
-5.0000000000000003e-02  1.0000000000000000e+00  0.0000000000000000e+00
-1.6666666666666670e-02  1.0000000000000000e+00  0.0000000000000000e+00
-5.0000000000000003e-02  9.7222222222222221e-01  0.0000000000000000e+00
-3.3333333333333340e-02  1.0000000000000000e+00  0.0000000000000000e+00
1.6666666666666663e-02  1.0000000000000000e+00  0.0000000000000000e+00
-3.4694469519536142e-18  1.0000000000000000e+00  0.0000000000000000e+00
5.0000000000000003e-02  1.0000000000000000e+00  0.0000000000000000e+00
5.0000000000000003e-02  9.7222222222222221e-01  0.0000000000000000e+00
3.3333333333333333e-02  1.0000000000000000e+00  0.0000000000000000e+00

CELLS 0 0


CELL_TYPES 0


POINT_DATA 79

VECTORS VertexNormals float

0.0000000000000000e+00 0.0000000000000000e+00 0
0.0000000000000000e+00 0.0000000000000000e+00 0
0.0000000000000000e+00 0.0000000000000000e+00 0
0.0000000000000000e+00 0.0000000000000000e+00 0
0.0000000000000000e+00 0.0000000000000000e+00 0
0.0000000000000000e+00 0.0000000000000000e+00 0
0.0000000000000000e+00 0.0000000000000000e+00 0
0.0000000000000000e+00 0.0000000000000000e+00 0
0.0000000000000000e+00 0.0000000000000000e+00 0
0.0000000000000000e+00 0.0000000000000000e+00 0
0.0000000000000000e+00 0.0000000000000000e+00 0
0.0000000000000000e+00 0.0000000000000000e+00 0
0.0000000000000000e+00 0.0000000000000000e+00 0
0.0000000000000000e+00 0.0000000000000000e+00 0
0.0000000000000000e+00 0.0000000000000000e+00 0
0.0000000000000000e+00 0.0000000000000000e+00 0
0.0000000000000000e+00 0.0000000000000000e+00 0
0.0000000000000000e+00 0.0000000000000000e+00 0
0.0000000000000000e+00 0.0000000000000000e+00 0
0.0000000000000000e+00 0.0000000000000000e+00 0
0.0000000000000000e+00 0.0000000000000000e+00 0
0.0000000000000000e+00 0.0000000000000000e+00 0
0.0000000000000000e+00 0.0000000000000000e+00 0
0.0000000000000000e+00 0.0000000000000000e+00 0
0.0000000000000000e+00 0.0000000000000000e+00 0
0.0000000000000000e+00 0.0000000000000000e+00 0
0.0000000000000000e+00 0.0000000000000000e+00 0
0.0000000000000000e+00 0.0000000000000000e+00 0
0.0000000000000000e+00 0.0000000000000000e+00 0
0.0000000000000000e+00 0.0000000000000000e+00 0
0.0000000000000000e+00 0.0000000000000000e+00 0
0.0000000000000000e+00 0.0000000000000000e+00 0
0.0000000000000000e+00 0.0000000000000000e+00 0
0.0000000000000000e+00 0.0000000000000000e+00 0
0.0000000000000000e+00 0.0000000000000000e+00 0
0.0000000000000000e+00 0.0000000000000000e+00 0
0.0000000000000000e+00 0.0000000000000000e+00 0
0.0000000000000000e+00 0.0000000000000000e+00 0
0.0000000000000000e+00 0.0000000000000000e+00 0
0.0000000000000000e+00 0.0000000000000000e+00 0
0.0000000000000000e+00 0.0000000000000000e+00 0
0.0000000000000000e+00 0.0000000000000000e+00 0
0.0000000000000000e+00 0.0000000000000000e+00 0
0.0000000000000000e+00 0.0000000000000000e+00 0
0.0000000000000000e+00 0.0000000000000000e+00 0
0.0000000000000000e+00 0.0000000000000000e+00 0
0.0000000000000000e+00 0.0000000000000000e+00 0
0.0000000000000000e+00 0.0000000000000000e+00 0
0.0000000000000000e+00 0.0000000000000000e+00 0
0.0000000000000000e+00 0.0000000000000000e+00 0
0.0000000000000000e+00 0.0000000000000000e+00 0
0.0000000000000000e+00 0.0000000000000000e+00 0
0.0000000000000000e+00 0.0000000000000000e+00 0
0.0000000000000000e+00 0.0000000000000000e+00 0
0.0000000000000000e+00 0.0000000000000000e+00 0
0.0000000000000000e+00 0.0000000000000000e+00 0
0.0000000000000000e+00 0.0000000000000000e+00 0
0.0000000000000000e+00 0.0000000000000000e+00 0
0.0000000000000000e+00 0.0000000000000000e+00 0
0.0000000000000000e+00 0.0000000000000000e+00 0
0.0000000000000000e+00 0.0000000000000000e+00 0
0.0000000000000000e+00 0.0000000000000000e+00 0
0.0000000000000000e+00 0.0000000000000000e+00 0
0.0000000000000000e+00 0.0000000000000000e+00 0
0.0000000000000000e+00 0.0000000000000000e+00 0
0.0000000000000000e+00 0.0000000000000000e+00 0
0.0000000000000000e+00 0.0000000000000000e+00 0
0.0000000000000000e+00 0.0000000000000000e+00 0
0.0000000000000000e+00 0.0000000000000000e+00 0
0.0000000000000000e+00 0.0000000000000000e+00 0
0.0000000000000000e+00 0.0000000000000000e+00 0
0.0000000000000000e+00 0.0000000000000000e+00 0
0.0000000000000000e+00 0.0000000000000000e+00 0
0.0000000000000000e+00 0.0000000000000000e+00 0
0.0000000000000000e+00 0.0000000000000000e+00 0
0.0000000000000000e+00 0.0000000000000000e+00 0
0.0000000000000000e+00 0.0000000000000000e+00 0
0.0000000000000000e+00 0.0000000000000000e+00 0
0.0000000000000000e+00 0.0000000000000000e+00 0

VECTORS Displacement float
0.0000000000000000e+00 0.0000000000000000e+00 0
1.9066417833708345e-03 2.1469766531447771e-03 0
8.4640429194453336e-04 1.1399811334178631e-03 0
0.0000000000000000e+00 0.0000000000000000e+00 0
1.8244506457734970e-03 -2.1571039084180904e-03 0
8.1637897257475921e-04 -1.1252595676227301e-03 0
5.4943612429968914e-03 4.0372642299247169e-03 0
3.4848687924030619e-03 3.1127157047444506e-03 0
5.4740242190260760e-03 -4.1720245276216442e-03 0
3.4139226679412295e-03 -3.1933803385531439e-03 0
1.1228886934030175e-02 5.8214483199477236e-03 0
8.0724501598740186e-03 4.9502843598731826e-03 0
1.1162982838762641e-02 -6.0040986466947111e-03 0
8.0574025917158152e-03 -5.1100665196250460e-03 0
1.8861011580749876e-02 7.3028071408188485e-03 0
1.4853061584237732e-02 6.6081804394033834e-03 0
1.8831897869001975e-02 -7.5597914565361021e-03 0
1.4778251485586227e-02 -6.8321774014646359e-03 0
2.7905117337021425e-02 8.5318626059275662e-03 0
2.3232131134806298e-02 7.9179815507005227e-03 0
2.7836607911270638e-02 -8.7803235135472113e-03 0
2.3219765671208051e-02 -8.1705421593107307e-03 0
3.8404164550909434e-02 9.7423414064700502e-03 0
3.2969666372297285e-02 9.1590521801305121e-03 0
3.8283637329158980e-02 -1.0005453543107517e-02 0
3.2841213802557001e-02 -9.4243059470822850e-03 0
5.0117244467470207e-02 1.0655105238240908e-02 0
4.4106518751085427e-02 1.0248603700323827e-02 0
4.9990076390221627e-02 -1.0886652250075571e-02 0
4.4012322718676444e-02 -1.0480349918016475e-02 0
6.2597712389351079e-02 1.1175878137737350e-02 0
5.6315175502414959e-02 1.0936777910556363e-02 0
6.2543084310808170e-02 -1.1518107568105016e-02 0
5.6181029140709972e-02 -1.1231675984118929e-02 0
7.5586918874719855e-02 1.1620790686849614e-02 0
6.9014085173287359e-02 1.1411438962168648e-02 0
7.5521119289627958e-02 -1.1935298405807581e-02 0
6.9005650461870488e-02 -1.1732788149808857e-02 0
8.8995517532071633e-02 1.1906096799383620e-02 0
8.2267292581680723e-02 1.1778091675801634e-02 0
8.8954530276061372e-02 -1.2383069901564413e-02 0
8.2155804952414341e-02 -1.2168458358890747e-02 0
1.0270179927831924e-01 1.2099522213814981e-02 0
9.5795381845444325e-02 1.2020740600647728e-02 0
1.0266349403897715e-01 -1.2631618707580592e-02 0
9.5825016554656611e-02 -1.2521416242488932e-02 0
1.1659073836797004e-01 1.2064358013344659e-02 0
1.0966967007296757e-01 1.2106506783973471e-02 0
1.1649560885761617e-01 -1.2836446933509629e-02 0
1.0952938307727669e-01 -1.2753225695762069e-02 0
1.3036972053075960e-01 1.1978621960326723e-02 0
1.2346436159553595e-01 1.2023066786307861e-02 0
1.3035771307784980e-01 -1.2817556670518147e-02 0
1.2346952639271755e-01 -1.2841932615255965e-02 0
1.4410540132828631e-01 1.1769733645956550e-02 0
1.3726477996789230e-01 1.1887671023367064e-02 0
1.4405897456222944e-01 -1.2733307273829521e-02 0
1.3720305172840666e-01 -1.2790127458237679e-02 0
1.5769777452016706e-01 1.1484876657712775e-02 0
1.5090482126734872e-01 1.1648071095126925e-02 0
1.5764057918293406e-01 -1.2462068013114145e-02 0
1.5089131292571739e-01 -1.2624902410514800e-02 0
1.7082266362660598e-01 1.0934603321724468e-02 0
1.6439148020926553e-01 1.1223648595069382e-02 0
1.7068769086119678e-01 -1.2004416903791802e-02 0
1.6425211374497983e-01 -1.2233141675304411e-02 0
1.8318658547985531e-01 1.0597462124942288e-02 0
1.7705277211280551e-01 1.0723970257140385e-02 0
1.8314889978029691e-01 -1.1641096983722916e-02 0
1.7698697610908509e-01 -1.1806545537131110e-02 0
1.9538933173051065e-01 1.0550899969325001e-02 0
1.9538604231266274e-01 3.1867254637359494e-03 0
1.8928199660340228e-01 1.0553878346959025e-02 0
1.9539021313057214e-01 6.8752800500965173e-03 0
1.9531532687095668e-01 -4.1899431344481573e-03 0
1.9536337022710892e-01 -5.0552114013827695e-04 0
1.9522596089027294e-01 -1.1508186630849626e-02 0
1.8918950736252665e-01 -1.1550203778067073e-02 0
1.9525678953677450e-01 -7.8640740304648550e-03 0

VECTORS Stress float
1.4070197218220153e+02 -2.4881454495125922e+01 0
1.3273626672697586e+02 -2.6171533411551406e+00 0
1.3467856857656528e+02 -6.8800279447991661e+00 0
1.2720187698359219e+01 -1.8815312309147842e+01 0
3.4053738464372225e+00 3.1147208214981257e+00 0
5.6545987762652317e+00 -2.1954197510396720e+00 0
1.3407866832869377e+02 -1.1252075876611309e+01 0
1.3332608664043329e+02 -6.4928017737543140e+00 0
4.7603871723934379e+00 -8.0812304051592099e-01 0
3.9500978836346134e+00 1.4791893797021736e+00 0
1.3355421947761690e+02 -1.5757493443477340e+01 0
1.3389603967790015e+02 -1.3789799593676179e+01 0
4.6703825957161014e+00 -5.4912828288849269e-01 0
4.7936308831751280e+00 -8.5123495239528113e-01 0
1.3266243017699134e+02 -1.9397697805580300e+01 0
1.3310021751265785e+02 -1.7603021026216727e+01 0
5.1036944778241597e+00 -7.0560965084520522e-01 0
4.8531769444975588e+00 -5.4707175957904397e-01 0
1.3111702249322931e+02 -2.2515336553050325e+01 0
1.3198978174345353e+02 -2.1025894427599582e+01 0
5.9716302619430515e+00 -1.0014996943931669e+00 0
5.4980194705041789e+00 -8.6631397143673006e-01 0
1.2879935378544744e+02 -2.5210657109241559e+01 0
1.3010833064034219e+02 -2.3931199046550464e+01 0
7.1789472051805543e+00 -1.3842875113655424e+00 0
6.4853969698636327e+00 -1.1666657278504466e+00 0
1.2591354162085679e+02 -2.7012239881617624e+01 0
1.2744373098747656e+02 -2.6332779074249665e+01 0
8.7528696511718422e+00 -1.8550055204221287e+00 0
7.8770595983321314e+00 -1.5882794653416266e+00 0
1.2259991420838932e+02 -2.7715474926532870e+01 0
1.2431779125386859e+02 -2.7430565297619328e+01 0
1.0706212142716616e+01 -2.3724268639184505e+00 0
9.6853402635284382e+00 -2.1082047900759164e+00 0
1.1873998385060835e+02 -2.7953094728348798e+01 0
1.2070288724711054e+02 -2.7885027712610245e+01 0
1.2979255825657056e+01 -2.9565147831889753e+00 0
1.1848579029891432e+01 -2.6751072411446355e+00 0
1.1434827665298667e+02 -2.7569772324446490e+01 0
1.1659467065434464e+02 -2.7808137164645181e+01 0
1.5388596076470755e+01 -3.6422443586326114e+00 0
1.4197208342766892e+01 -3.3150970151475345e+00 0
1.0929168284707914e+02 -2.6942923213805411e+01 0
1.1190761572473994e+02 -2.7289555424646096e+01 0
1.7873956863189971e+01 -4.3003013167075927e+00 0
1.6620759472378193e+01 -3.9804735256420400e+00 0
1.0375533104784499e+02 -2.5704789069738879e+01 0
1.0657759951424700e+02 -2.6441379801339046e+01 0
2.0380602773295418e+01 -4.9296715216566867e+00 0
1.9112323866127195e+01 -4.5912978204385020e+00 0
9.7604161336488431e+01 -2.3943198278899452e+01 0
1.0078343534236390e+02 -2.4836427448865077e+01 0
2.2873856188383069e+01 -5.4822945037102215e+00 0
2.1620247367025140e+01 -5.1977846344584755e+00 0
9.0457081216053922e+01 -2.2197074202575720e+01 0
9.4167469983149729e+01 -2.3007345069078021e+01 0
2.5311174043910214e+01 -6.0843915715998165e+00 0
2.4100258736069289e+01 -5.7339492779900496e+00 0
8.1861915943148929e+01 -1.9685372348917227e+01 0
8.6402723504575704e+01 -2.1378277157782694e+01 0
2.7363424274893745e+01 -6.3197078861624192e+00 0
2.6468926712672683e+01 -6.4647625061342744e+00 0
7.1066491130544250e+01 -1.4253493707321734e+01 0
7.6820512209033822e+01 -1.6286755519329724e+01 0
2.8383975297692245e+01 -5.2444276521135258e+00 0
2.7759534956029654e+01 -5.3022185128755979e+00 0
5.6346696377575611e+01 -2.6453448452788383e+01 0
6.4828017335810472e+01 -2.1394759783947116e+01 0
3.3382200842234411e+01 -1.4696490165324374e+01 0
3.1226924033808515e+01 -1.0796215446974550e+01 0
2.3567391242930356e+01 7.5363838831628385e+01 0
1.5065329061462336e+01 7.2241878986960046e+01 0
4.2599013734756710e+01 1.5349863878546692e+00 0
1.7913907055195601e+01 8.0398778898776513e+01 0
1.1663358847021399e+01 4.9883039412955775e+01 0
1.3333935621434350e+01 6.0182597762731241e+01 0
5.3915170457809438e+00 4.0296409813166058e+01 0
2.6546950219739259e+01 -8.1064048584165604e-01 0
9.2274859963566911e+00 4.2536277734795831e+01 0

