# vtk DataFile Version 2.0

ASCII

DATASET UNSTRUCTURED_GRID

POINTS 79 float 

-5.0000000000000003e-02  0.0000000000000000e+00  0.0000000000000000e+00
-5.0000000000000003e-02  5.5555555555555552e-02  0.0000000000000000e+00
-5.0000000000000003e-02  2.7777777777777776e-02  0.0000000000000000e+00
5.0000000000000003e-02  0.0000000000000000e+00  0.0000000000000000e+00
5.0000000000000003e-02  5.5555555555555552e-02  0.0000000000000000e+00
5.0000000000000003e-02  2.7777777777777776e-02  0.0000000000000000e+00
-5.0000000000000003e-02  1.1111111111111110e-01  0.0000000000000000e+00
-5.0000000000000003e-02  8.3333333333333329e-02  0.0000000000000000e+00
5.0000000000000003e-02  1.1111111111111110e-01  0.0000000000000000e+00
5.0000000000000003e-02  8.3333333333333329e-02  0.0000000000000000e+00
-5.0000000000000003e-02  1.6666666666666666e-01  0.0000000000000000e+00
-5.0000000000000003e-02  1.3888888888888890e-01  0.0000000000000000e+00
5.0000000000000003e-02  1.6666666666666666e-01  0.0000000000000000e+00
5.0000000000000003e-02  1.3888888888888890e-01  0.0000000000000000e+00
-5.0000000000000003e-02  2.2222222222222221e-01  0.0000000000000000e+00
-5.0000000000000003e-02  1.9444444444444442e-01  0.0000000000000000e+00
5.0000000000000003e-02  2.2222222222222221e-01  0.0000000000000000e+00
5.0000000000000003e-02  1.9444444444444442e-01  0.0000000000000000e+00
-5.0000000000000003e-02  2.7777777777777779e-01  0.0000000000000000e+00
-5.0000000000000003e-02  2.5000000000000000e-01  0.0000000000000000e+00
5.0000000000000003e-02  2.7777777777777779e-01  0.0000000000000000e+00
5.0000000000000003e-02  2.5000000000000000e-01  0.0000000000000000e+00
-5.0000000000000003e-02  3.3333333333333331e-01  0.0000000000000000e+00
-5.0000000000000003e-02  3.0555555555555558e-01  0.0000000000000000e+00
5.0000000000000003e-02  3.3333333333333331e-01  0.0000000000000000e+00
5.0000000000000003e-02  3.0555555555555558e-01  0.0000000000000000e+00
-5.0000000000000003e-02  3.8888888888888884e-01  0.0000000000000000e+00
-5.0000000000000003e-02  3.6111111111111105e-01  0.0000000000000000e+00
5.0000000000000003e-02  3.8888888888888884e-01  0.0000000000000000e+00
5.0000000000000003e-02  3.6111111111111105e-01  0.0000000000000000e+00
-5.0000000000000003e-02  4.4444444444444442e-01  0.0000000000000000e+00
-5.0000000000000003e-02  4.1666666666666663e-01  0.0000000000000000e+00
5.0000000000000003e-02  4.4444444444444442e-01  0.0000000000000000e+00
5.0000000000000003e-02  4.1666666666666663e-01  0.0000000000000000e+00
-5.0000000000000003e-02  5.0000000000000000e-01  0.0000000000000000e+00
-5.0000000000000003e-02  4.7222222222222221e-01  0.0000000000000000e+00
5.0000000000000003e-02  5.0000000000000000e-01  0.0000000000000000e+00
5.0000000000000003e-02  4.7222222222222221e-01  0.0000000000000000e+00
-5.0000000000000003e-02  5.5555555555555558e-01  0.0000000000000000e+00
-5.0000000000000003e-02  5.2777777777777779e-01  0.0000000000000000e+00
5.0000000000000003e-02  5.5555555555555558e-01  0.0000000000000000e+00
5.0000000000000003e-02  5.2777777777777779e-01  0.0000000000000000e+00
-5.0000000000000003e-02  6.1111111111111105e-01  0.0000000000000000e+00
-5.0000000000000003e-02  5.8333333333333326e-01  0.0000000000000000e+00
5.0000000000000003e-02  6.1111111111111105e-01  0.0000000000000000e+00
5.0000000000000003e-02  5.8333333333333326e-01  0.0000000000000000e+00
-5.0000000000000003e-02  6.6666666666666663e-01  0.0000000000000000e+00
-5.0000000000000003e-02  6.3888888888888884e-01  0.0000000000000000e+00
5.0000000000000003e-02  6.6666666666666663e-01  0.0000000000000000e+00
5.0000000000000003e-02  6.3888888888888884e-01  0.0000000000000000e+00
-5.0000000000000003e-02  7.2222222222222221e-01  0.0000000000000000e+00
-5.0000000000000003e-02  6.9444444444444442e-01  0.0000000000000000e+00
5.0000000000000003e-02  7.2222222222222221e-01  0.0000000000000000e+00
5.0000000000000003e-02  6.9444444444444442e-01  0.0000000000000000e+00
-5.0000000000000003e-02  7.7777777777777768e-01  0.0000000000000000e+00
-5.0000000000000003e-02  7.5000000000000000e-01  0.0000000000000000e+00
5.0000000000000003e-02  7.7777777777777768e-01  0.0000000000000000e+00
5.0000000000000003e-02  7.5000000000000000e-01  0.0000000000000000e+00
-5.0000000000000003e-02  8.3333333333333326e-01  0.0000000000000000e+00
-5.0000000000000003e-02  8.0555555555555547e-01  0.0000000000000000e+00
5.0000000000000003e-02  8.3333333333333326e-01  0.0000000000000000e+00
5.0000000000000003e-02  8.0555555555555547e-01  0.0000000000000000e+00
-5.0000000000000003e-02  8.8888888888888884e-01  0.0000000000000000e+00
-5.0000000000000003e-02  8.6111111111111105e-01  0.0000000000000000e+00
5.0000000000000003e-02  8.8888888888888884e-01  0.0000000000000000e+00
5.0000000000000003e-02  8.6111111111111105e-01  0.0000000000000000e+00
-5.0000000000000003e-02  9.4444444444444442e-01  0.0000000000000000e+00
-5.0000000000000003e-02  9.1666666666666663e-01  0.0000000000000000e+00
5.0000000000000003e-02  9.4444444444444442e-01  0.0000000000000000e+00
5.0000000000000003e-02  9.1666666666666663e-01  0.0000000000000000e+00
-5.0000000000000003e-02  1.0000000000000000e+00  0.0000000000000000e+00
-1.6666666666666670e-02  1.0000000000000000e+00  0.0000000000000000e+00
-5.0000000000000003e-02  9.7222222222222221e-01  0.0000000000000000e+00
-3.3333333333333340e-02  1.0000000000000000e+00  0.0000000000000000e+00
1.6666666666666663e-02  1.0000000000000000e+00  0.0000000000000000e+00
-3.4694469519536142e-18  1.0000000000000000e+00  0.0000000000000000e+00
5.0000000000000003e-02  1.0000000000000000e+00  0.0000000000000000e+00
5.0000000000000003e-02  9.7222222222222221e-01  0.0000000000000000e+00
3.3333333333333333e-02  1.0000000000000000e+00  0.0000000000000000e+00

CELLS 0 0


CELL_TYPES 0


POINT_DATA 79

VECTORS VertexNormals float

0.0000000000000000e+00 0.0000000000000000e+00 0
0.0000000000000000e+00 0.0000000000000000e+00 0
0.0000000000000000e+00 0.0000000000000000e+00 0
0.0000000000000000e+00 0.0000000000000000e+00 0
0.0000000000000000e+00 0.0000000000000000e+00 0
0.0000000000000000e+00 0.0000000000000000e+00 0
0.0000000000000000e+00 0.0000000000000000e+00 0
0.0000000000000000e+00 0.0000000000000000e+00 0
0.0000000000000000e+00 0.0000000000000000e+00 0
0.0000000000000000e+00 0.0000000000000000e+00 0
0.0000000000000000e+00 0.0000000000000000e+00 0
0.0000000000000000e+00 0.0000000000000000e+00 0
0.0000000000000000e+00 0.0000000000000000e+00 0
0.0000000000000000e+00 0.0000000000000000e+00 0
0.0000000000000000e+00 0.0000000000000000e+00 0
0.0000000000000000e+00 0.0000000000000000e+00 0
0.0000000000000000e+00 0.0000000000000000e+00 0
0.0000000000000000e+00 0.0000000000000000e+00 0
0.0000000000000000e+00 0.0000000000000000e+00 0
0.0000000000000000e+00 0.0000000000000000e+00 0
0.0000000000000000e+00 0.0000000000000000e+00 0
0.0000000000000000e+00 0.0000000000000000e+00 0
0.0000000000000000e+00 0.0000000000000000e+00 0
0.0000000000000000e+00 0.0000000000000000e+00 0
0.0000000000000000e+00 0.0000000000000000e+00 0
0.0000000000000000e+00 0.0000000000000000e+00 0
0.0000000000000000e+00 0.0000000000000000e+00 0
0.0000000000000000e+00 0.0000000000000000e+00 0
0.0000000000000000e+00 0.0000000000000000e+00 0
0.0000000000000000e+00 0.0000000000000000e+00 0
0.0000000000000000e+00 0.0000000000000000e+00 0
0.0000000000000000e+00 0.0000000000000000e+00 0
0.0000000000000000e+00 0.0000000000000000e+00 0
0.0000000000000000e+00 0.0000000000000000e+00 0
0.0000000000000000e+00 0.0000000000000000e+00 0
0.0000000000000000e+00 0.0000000000000000e+00 0
0.0000000000000000e+00 0.0000000000000000e+00 0
0.0000000000000000e+00 0.0000000000000000e+00 0
0.0000000000000000e+00 0.0000000000000000e+00 0
0.0000000000000000e+00 0.0000000000000000e+00 0
0.0000000000000000e+00 0.0000000000000000e+00 0
0.0000000000000000e+00 0.0000000000000000e+00 0
0.0000000000000000e+00 0.0000000000000000e+00 0
0.0000000000000000e+00 0.0000000000000000e+00 0
0.0000000000000000e+00 0.0000000000000000e+00 0
0.0000000000000000e+00 0.0000000000000000e+00 0
0.0000000000000000e+00 0.0000000000000000e+00 0
0.0000000000000000e+00 0.0000000000000000e+00 0
0.0000000000000000e+00 0.0000000000000000e+00 0
0.0000000000000000e+00 0.0000000000000000e+00 0
0.0000000000000000e+00 0.0000000000000000e+00 0
0.0000000000000000e+00 0.0000000000000000e+00 0
0.0000000000000000e+00 0.0000000000000000e+00 0
0.0000000000000000e+00 0.0000000000000000e+00 0
0.0000000000000000e+00 0.0000000000000000e+00 0
0.0000000000000000e+00 0.0000000000000000e+00 0
0.0000000000000000e+00 0.0000000000000000e+00 0
0.0000000000000000e+00 0.0000000000000000e+00 0
0.0000000000000000e+00 0.0000000000000000e+00 0
0.0000000000000000e+00 0.0000000000000000e+00 0
0.0000000000000000e+00 0.0000000000000000e+00 0
0.0000000000000000e+00 0.0000000000000000e+00 0
0.0000000000000000e+00 0.0000000000000000e+00 0
0.0000000000000000e+00 0.0000000000000000e+00 0
0.0000000000000000e+00 0.0000000000000000e+00 0
0.0000000000000000e+00 0.0000000000000000e+00 0
0.0000000000000000e+00 0.0000000000000000e+00 0
0.0000000000000000e+00 0.0000000000000000e+00 0
0.0000000000000000e+00 0.0000000000000000e+00 0
0.0000000000000000e+00 0.0000000000000000e+00 0
0.0000000000000000e+00 0.0000000000000000e+00 0
0.0000000000000000e+00 0.0000000000000000e+00 0
0.0000000000000000e+00 0.0000000000000000e+00 0
0.0000000000000000e+00 0.0000000000000000e+00 0
0.0000000000000000e+00 0.0000000000000000e+00 0
0.0000000000000000e+00 0.0000000000000000e+00 0
0.0000000000000000e+00 0.0000000000000000e+00 0
0.0000000000000000e+00 0.0000000000000000e+00 0
0.0000000000000000e+00 0.0000000000000000e+00 0

VECTORS Displacement float
0.0000000000000000e+00 0.0000000000000000e+00 0
1.7308088852029402e-03 2.0954630703750518e-03 0
7.3472483340143399e-04 1.0961912503391963e-03 0
0.0000000000000000e+00 0.0000000000000000e+00 0
1.8411269070840895e-03 -2.2030072304046050e-03 0
8.2402438892836469e-04 -1.1838852547055858e-03 0
5.4757443231792415e-03 4.0001352518708733e-03 0
3.3263950041438556e-03 3.0625709127449253e-03 0
5.4920520546003345e-03 -4.1717541952188929e-03 0
3.3826774148975778e-03 -3.1884341547723967e-03 0
1.1139704111539580e-02 5.7136492903104869e-03 0
8.0750894969048824e-03 4.8818271394696095e-03 0
1.1198420769585738e-02 -5.9851398284296031e-03 0
8.1135755750124956e-03 -5.1015927725243070e-03 0
1.8753543320948800e-02 7.1943090235122116e-03 0
1.4726207263477491e-02 6.4759189090070873e-03 0
1.8714622643570690e-02 -7.6206298089548669e-03 0
1.4731898573614687e-02 -6.8191400265929288e-03 0
2.7922687531707721e-02 8.5238984364965197e-03 0
2.3142567050145876e-02 7.8818543962977869e-03 0
2.7966627259358348e-02 -8.9839562339388938e-03 0
2.3134227327716292e-02 -8.3588639557604788e-03 0
3.8429163953639586e-02 9.6706067336736392e-03 0
3.3007814124816917e-02 9.1170403229387312e-03 0
3.8418984123104412e-02 -1.0114867121808997e-02 0
3.3046737477108935e-02 -9.5401628694749031e-03 0
5.0146444197979201e-02 1.0596403322658682e-02 0
4.4180625246766678e-02 1.0152129051266003e-02 0
5.0211380060786390e-02 -1.1176478912529304e-02 0
4.4176162897845817e-02 -1.0675980491957365e-02 0
6.2932823237746974e-02 1.1390233129690985e-02 0
5.6399854839632571e-02 1.1025901073997625e-02 0
6.2903005880480672e-02 -1.1974741773468887e-02 0
5.6461108321079853e-02 -1.1600148291172487e-02 0
7.6296906160542924e-02 1.1855422991614593e-02 0
6.9592098542505115e-02 1.1645904581389054e-02 0
7.6357112695144516e-02 -1.2574541001232667e-02 0
6.9541582860587425e-02 -1.2308713695439764e-02 0
9.0091356925250096e-02 1.2257087551503438e-02 0
8.3113105447915891e-02 1.2068431523917168e-02 0
9.0117207469367522e-02 -1.2918852829472114e-02 0
8.3243432809564741e-02 -1.2747513032043686e-02 0
1.0427784955680548e-01 1.2538412265294636e-02 0
9.7157685106056269e-02 1.2401419787369491e-02 0
1.0429552687035601e-01 -1.3430728039589432e-02 0
9.7093168646008643e-02 -1.3171370389070042e-02 0
1.1896791850152375e-01 1.2761391588382269e-02 0
1.1152211434137410e-01 1.2682459337308504e-02 0
1.1909553744058780e-01 -1.3699489680653078e-02 0
1.1165971566106760e-01 -1.3612142423957797e-02 0
1.3383279826478847e-01 1.2496717317757243e-02 0
1.2648139766061817e-01 1.2673915770874407e-02 0
1.3385340795716377e-01 -1.3562066942313631e-02 0
1.2651354035470727e-01 -1.3663841990621650e-02 0
1.4822431770268718e-01 1.2161082744370031e-02 0
1.4105523644705242e-01 1.2331094921878227e-02 0
1.4831036963463320e-01 -1.3299761294567971e-02 0
1.4113132769757014e-01 -1.3439605555241657e-02 0
1.6224708113896091e-01 1.1705981921547532e-02 0
1.5531441676361374e-01 1.1941488238320312e-02 0
1.6225111746398924e-01 -1.2983667962310399e-02 0
1.5534451933093296e-01 -1.3139926548153618e-02 0
1.7567282062556949e-01 1.1397866383293001e-02 0
1.6899926702410056e-01 1.1516467384360516e-02 0
1.7577831650802961e-01 -1.2715764369362342e-02 0
1.6905909591155158e-01 -1.2852583143187591e-02 0
1.8889718101933653e-01 1.1256794610552519e-02 0
1.8231025618129007e-01 1.1319538654672175e-02 0
1.8889989547712127e-01 -1.2469515806343180e-02 0
1.8238564313212907e-01 -1.2575787364326897e-02 0
2.0198956029691584e-01 1.1238484113160706e-02 0
2.0197396806482362e-01 3.3530849343704383e-03 0
1.9543590949973597e-01 1.1232875033349252e-02 0
2.0198247212656936e-01 7.2971844216049749e-03 0
2.0196217054404653e-01 -4.5466690414756889e-03 0
2.0196356021763440e-01 -5.9778185912008424e-04 0
2.0197867581333043e-01 -1.2416619703191255e-02 0
1.9541888417999814e-01 -1.2420669854306555e-02 0
2.0197119099831412e-01 -8.4831678956191602e-03 0

VECTORS Stress float
1.4293219706177842e+02 -2.3465586899346945e+01 0
1.3537903544374097e+02 -2.8348246621658970e+00 0
1.3724088024120391e+02 -6.4644871583811820e+00 0
8.0445703173823304e+00 -1.7471640147203960e+01 0
-8.1453718120401097e-01 3.1170911676021755e+00 0
1.3270868947628032e+00 -1.9076279476693048e+00 0
1.3660938443342229e+02 -1.1760825085275943e+01 0
1.3590672166038971e+02 -7.0203673871651313e+00 0
4.6298484013277363e-01 -4.0907970300687868e-01 0
-3.0429662202982977e-01 1.6590582594729630e+00 0
1.3612848148526763e+02 -1.5811085290789892e+01 0
1.3644843819874598e+02 -1.4042291583546984e+01 0
3.8858461620632578e-01 -1.4715035041819036e-02 0
5.0109488966400217e-01 -3.7152632391299623e-01 0
1.3517336521983626e+02 -1.9857340825610081e+01 0
1.3565100985523728e+02 -1.7808605864651298e+01 0
8.1660653633761093e-01 -4.4044324014221203e-02 0
5.7267085878164714e-01 5.5365222771179390e-02 0
1.3358203462518819e+02 -2.3119376170325772e+01 0
1.3447016835159445e+02 -2.1623269136742486e+01 0
1.6711445819725252e+00 -2.3876056332782092e-01 0
1.2030067110991531e+00 -1.5577258662338700e-01 0
1.3128398788003577e+02 -2.5680043927461586e+01 0
1.3257463729954983e+02 -2.4481570117422741e+01 0
2.8863521879202860e+00 -5.0712934327159331e-01 0
2.1852199914571617e+00 -3.4374545729387229e-01 0
1.2827943365156753e+02 -2.7775294747060276e+01 0
1.2991891144998334e+02 -2.6806249372057312e+01 0
4.4530946979674688e+00 -9.1525873629729659e-01 0
3.5845885649774480e+00 -6.7689175827904080e-01 0
1.2471725420216207e+02 -2.9043008466179831e+01 0
1.2653238094627066e+02 -2.8584483635354264e+01 0
6.3554305686730608e+00 -1.3994048491968059e+00 0
5.3682876382797247e+00 -1.1443121020525986e+00 0
1.2081901323248127e+02 -2.9047477736790579e+01 0
1.2280156873183567e+02 -2.9095463937738284e+01 0
8.5591941211883906e+00 -1.9821722814383023e+00 0
7.4531242974859460e+00 -1.7076113574554448e+00 0
1.1622879788102091e+02 -2.8939170408246877e+01 0
1.1858667815792489e+02 -2.9000011341483916e+01 0
1.1034519568522779e+01 -2.6285456361250930e+00 0
9.8081111064401618e+00 -2.3137629602225225e+00 0
1.1097647651494066e+02 -2.8540873447604234e+01 0
1.1368655622256176e+02 -2.8790172856326414e+01 0
1.3451016986267938e+01 -3.3889643552643580e+00 0
1.2249611218971129e+01 -3.0005609284492376e+00 0
1.0515428696259498e+02 -2.7755872684001552e+01 0
1.0814099843819130e+02 -2.8207424363426433e+01 0
1.5999779071223866e+01 -4.1271191739980253e+00 0
1.4670274042955548e+01 -3.7478221550654407e+00 0
9.9028287366897089e+01 -2.6082112825654832e+01 0
1.0208617834574387e+02 -2.7100513898163825e+01 0
1.8741276701110280e+01 -4.7281281772686015e+00 0
1.7353556810238075e+01 -4.4113829452865332e+00 0
9.2435447945884817e+01 -2.3641752115464918e+01 0
9.5845145491790063e+01 -2.4822313971713648e+01 0
2.1471568220899819e+01 -5.3348499039263118e+00 0
2.0120397552767347e+01 -4.9973941615433475e+00 0
8.4260262785567448e+01 -2.0624142939697727e+01 0
8.8663998617272057e+01 -2.2491340587433669e+01 0
2.3660310018741356e+01 -5.5992385162796978e+00 0
2.2721288843986528e+01 -5.7021631810827316e+00 0
7.2969762917065935e+01 -1.5539778361005666e+01 0
7.9029248156536497e+01 -1.7389284156034293e+01 0
2.4602606424380447e+01 -4.7058586386619012e+00 0
2.4065663825170830e+01 -4.6953484861410217e+00 0
5.7941156462946488e+01 -2.7118620171561915e+01 0
6.6511259953449439e+01 -2.2395803362959491e+01 0
2.8911401525637153e+01 -1.3628698655830519e+01 0
2.7060571226882210e+01 -9.9517596817853402e+00 0
2.4825146591474848e+01 7.1504937342876204e+01 0
1.5129034028169940e+01 6.8479607805928907e+01 0
4.4038834808445969e+01 1.1245354601180324e-01 0
1.8272144121657661e+01 7.6592366071881600e+01 0
1.1739719989227879e+01 4.6245193476611206e+01 0
1.3365987793079270e+01 5.6461513162260140e+01 0
4.2247842052645126e+00 3.7352953634410397e+01 0
2.2948923510105274e+01 -8.2040820626148303e-01 0
9.0855358704458382e+00 3.9096181494720696e+01 0

