# vtk DataFile Version 2.0

ASCII

DATASET UNSTRUCTURED_GRID

POINTS 79 float 

-5.0000000000000003e-02  0.0000000000000000e+00  0.0000000000000000e+00
-5.0000000000000003e-02  5.5555555555555552e-02  0.0000000000000000e+00
-5.0000000000000003e-02  2.7777777777777776e-02  0.0000000000000000e+00
5.0000000000000003e-02  0.0000000000000000e+00  0.0000000000000000e+00
5.0000000000000003e-02  5.5555555555555552e-02  0.0000000000000000e+00
5.0000000000000003e-02  2.7777777777777776e-02  0.0000000000000000e+00
-5.0000000000000003e-02  1.1111111111111110e-01  0.0000000000000000e+00
-5.0000000000000003e-02  8.3333333333333329e-02  0.0000000000000000e+00
5.0000000000000003e-02  1.1111111111111110e-01  0.0000000000000000e+00
5.0000000000000003e-02  8.3333333333333329e-02  0.0000000000000000e+00
-5.0000000000000003e-02  1.6666666666666666e-01  0.0000000000000000e+00
-5.0000000000000003e-02  1.3888888888888890e-01  0.0000000000000000e+00
5.0000000000000003e-02  1.6666666666666666e-01  0.0000000000000000e+00
5.0000000000000003e-02  1.3888888888888890e-01  0.0000000000000000e+00
-5.0000000000000003e-02  2.2222222222222221e-01  0.0000000000000000e+00
-5.0000000000000003e-02  1.9444444444444442e-01  0.0000000000000000e+00
5.0000000000000003e-02  2.2222222222222221e-01  0.0000000000000000e+00
5.0000000000000003e-02  1.9444444444444442e-01  0.0000000000000000e+00
-5.0000000000000003e-02  2.7777777777777779e-01  0.0000000000000000e+00
-5.0000000000000003e-02  2.5000000000000000e-01  0.0000000000000000e+00
5.0000000000000003e-02  2.7777777777777779e-01  0.0000000000000000e+00
5.0000000000000003e-02  2.5000000000000000e-01  0.0000000000000000e+00
-5.0000000000000003e-02  3.3333333333333331e-01  0.0000000000000000e+00
-5.0000000000000003e-02  3.0555555555555558e-01  0.0000000000000000e+00
5.0000000000000003e-02  3.3333333333333331e-01  0.0000000000000000e+00
5.0000000000000003e-02  3.0555555555555558e-01  0.0000000000000000e+00
-5.0000000000000003e-02  3.8888888888888884e-01  0.0000000000000000e+00
-5.0000000000000003e-02  3.6111111111111105e-01  0.0000000000000000e+00
5.0000000000000003e-02  3.8888888888888884e-01  0.0000000000000000e+00
5.0000000000000003e-02  3.6111111111111105e-01  0.0000000000000000e+00
-5.0000000000000003e-02  4.4444444444444442e-01  0.0000000000000000e+00
-5.0000000000000003e-02  4.1666666666666663e-01  0.0000000000000000e+00
5.0000000000000003e-02  4.4444444444444442e-01  0.0000000000000000e+00
5.0000000000000003e-02  4.1666666666666663e-01  0.0000000000000000e+00
-5.0000000000000003e-02  5.0000000000000000e-01  0.0000000000000000e+00
-5.0000000000000003e-02  4.7222222222222221e-01  0.0000000000000000e+00
5.0000000000000003e-02  5.0000000000000000e-01  0.0000000000000000e+00
5.0000000000000003e-02  4.7222222222222221e-01  0.0000000000000000e+00
-5.0000000000000003e-02  5.5555555555555558e-01  0.0000000000000000e+00
-5.0000000000000003e-02  5.2777777777777779e-01  0.0000000000000000e+00
5.0000000000000003e-02  5.5555555555555558e-01  0.0000000000000000e+00
5.0000000000000003e-02  5.2777777777777779e-01  0.0000000000000000e+00
-5.0000000000000003e-02  6.1111111111111105e-01  0.0000000000000000e+00
-5.0000000000000003e-02  5.8333333333333326e-01  0.0000000000000000e+00
5.0000000000000003e-02  6.1111111111111105e-01  0.0000000000000000e+00
5.0000000000000003e-02  5.8333333333333326e-01  0.0000000000000000e+00
-5.0000000000000003e-02  6.6666666666666663e-01  0.0000000000000000e+00
-5.0000000000000003e-02  6.3888888888888884e-01  0.0000000000000000e+00
5.0000000000000003e-02  6.6666666666666663e-01  0.0000000000000000e+00
5.0000000000000003e-02  6.3888888888888884e-01  0.0000000000000000e+00
-5.0000000000000003e-02  7.2222222222222221e-01  0.0000000000000000e+00
-5.0000000000000003e-02  6.9444444444444442e-01  0.0000000000000000e+00
5.0000000000000003e-02  7.2222222222222221e-01  0.0000000000000000e+00
5.0000000000000003e-02  6.9444444444444442e-01  0.0000000000000000e+00
-5.0000000000000003e-02  7.7777777777777768e-01  0.0000000000000000e+00
-5.0000000000000003e-02  7.5000000000000000e-01  0.0000000000000000e+00
5.0000000000000003e-02  7.7777777777777768e-01  0.0000000000000000e+00
5.0000000000000003e-02  7.5000000000000000e-01  0.0000000000000000e+00
-5.0000000000000003e-02  8.3333333333333326e-01  0.0000000000000000e+00
-5.0000000000000003e-02  8.0555555555555547e-01  0.0000000000000000e+00
5.0000000000000003e-02  8.3333333333333326e-01  0.0000000000000000e+00
5.0000000000000003e-02  8.0555555555555547e-01  0.0000000000000000e+00
-5.0000000000000003e-02  8.8888888888888884e-01  0.0000000000000000e+00
-5.0000000000000003e-02  8.6111111111111105e-01  0.0000000000000000e+00
5.0000000000000003e-02  8.8888888888888884e-01  0.0000000000000000e+00
5.0000000000000003e-02  8.6111111111111105e-01  0.0000000000000000e+00
-5.0000000000000003e-02  9.4444444444444442e-01  0.0000000000000000e+00
-5.0000000000000003e-02  9.1666666666666663e-01  0.0000000000000000e+00
5.0000000000000003e-02  9.4444444444444442e-01  0.0000000000000000e+00
5.0000000000000003e-02  9.1666666666666663e-01  0.0000000000000000e+00
-5.0000000000000003e-02  1.0000000000000000e+00  0.0000000000000000e+00
-1.6666666666666670e-02  1.0000000000000000e+00  0.0000000000000000e+00
-5.0000000000000003e-02  9.7222222222222221e-01  0.0000000000000000e+00
-3.3333333333333340e-02  1.0000000000000000e+00  0.0000000000000000e+00
1.6666666666666663e-02  1.0000000000000000e+00  0.0000000000000000e+00
-3.4694469519536142e-18  1.0000000000000000e+00  0.0000000000000000e+00
5.0000000000000003e-02  1.0000000000000000e+00  0.0000000000000000e+00
5.0000000000000003e-02  9.7222222222222221e-01  0.0000000000000000e+00
3.3333333333333333e-02  1.0000000000000000e+00  0.0000000000000000e+00

CELLS 0 0


CELL_TYPES 0


POINT_DATA 79

VECTORS VertexNormals float

0.0000000000000000e+00 0.0000000000000000e+00 0
0.0000000000000000e+00 0.0000000000000000e+00 0
0.0000000000000000e+00 0.0000000000000000e+00 0
0.0000000000000000e+00 0.0000000000000000e+00 0
0.0000000000000000e+00 0.0000000000000000e+00 0
0.0000000000000000e+00 0.0000000000000000e+00 0
0.0000000000000000e+00 0.0000000000000000e+00 0
0.0000000000000000e+00 0.0000000000000000e+00 0
0.0000000000000000e+00 0.0000000000000000e+00 0
0.0000000000000000e+00 0.0000000000000000e+00 0
0.0000000000000000e+00 0.0000000000000000e+00 0
0.0000000000000000e+00 0.0000000000000000e+00 0
0.0000000000000000e+00 0.0000000000000000e+00 0
0.0000000000000000e+00 0.0000000000000000e+00 0
0.0000000000000000e+00 0.0000000000000000e+00 0
0.0000000000000000e+00 0.0000000000000000e+00 0
0.0000000000000000e+00 0.0000000000000000e+00 0
0.0000000000000000e+00 0.0000000000000000e+00 0
0.0000000000000000e+00 0.0000000000000000e+00 0
0.0000000000000000e+00 0.0000000000000000e+00 0
0.0000000000000000e+00 0.0000000000000000e+00 0
0.0000000000000000e+00 0.0000000000000000e+00 0
0.0000000000000000e+00 0.0000000000000000e+00 0
0.0000000000000000e+00 0.0000000000000000e+00 0
0.0000000000000000e+00 0.0000000000000000e+00 0
0.0000000000000000e+00 0.0000000000000000e+00 0
0.0000000000000000e+00 0.0000000000000000e+00 0
0.0000000000000000e+00 0.0000000000000000e+00 0
0.0000000000000000e+00 0.0000000000000000e+00 0
0.0000000000000000e+00 0.0000000000000000e+00 0
0.0000000000000000e+00 0.0000000000000000e+00 0
0.0000000000000000e+00 0.0000000000000000e+00 0
0.0000000000000000e+00 0.0000000000000000e+00 0
0.0000000000000000e+00 0.0000000000000000e+00 0
0.0000000000000000e+00 0.0000000000000000e+00 0
0.0000000000000000e+00 0.0000000000000000e+00 0
0.0000000000000000e+00 0.0000000000000000e+00 0
0.0000000000000000e+00 0.0000000000000000e+00 0
0.0000000000000000e+00 0.0000000000000000e+00 0
0.0000000000000000e+00 0.0000000000000000e+00 0
0.0000000000000000e+00 0.0000000000000000e+00 0
0.0000000000000000e+00 0.0000000000000000e+00 0
0.0000000000000000e+00 0.0000000000000000e+00 0
0.0000000000000000e+00 0.0000000000000000e+00 0
0.0000000000000000e+00 0.0000000000000000e+00 0
0.0000000000000000e+00 0.0000000000000000e+00 0
0.0000000000000000e+00 0.0000000000000000e+00 0
0.0000000000000000e+00 0.0000000000000000e+00 0
0.0000000000000000e+00 0.0000000000000000e+00 0
0.0000000000000000e+00 0.0000000000000000e+00 0
0.0000000000000000e+00 0.0000000000000000e+00 0
0.0000000000000000e+00 0.0000000000000000e+00 0
0.0000000000000000e+00 0.0000000000000000e+00 0
0.0000000000000000e+00 0.0000000000000000e+00 0
0.0000000000000000e+00 0.0000000000000000e+00 0
0.0000000000000000e+00 0.0000000000000000e+00 0
0.0000000000000000e+00 0.0000000000000000e+00 0
0.0000000000000000e+00 0.0000000000000000e+00 0
0.0000000000000000e+00 0.0000000000000000e+00 0
0.0000000000000000e+00 0.0000000000000000e+00 0
0.0000000000000000e+00 0.0000000000000000e+00 0
0.0000000000000000e+00 0.0000000000000000e+00 0
0.0000000000000000e+00 0.0000000000000000e+00 0
0.0000000000000000e+00 0.0000000000000000e+00 0
0.0000000000000000e+00 0.0000000000000000e+00 0
0.0000000000000000e+00 0.0000000000000000e+00 0
0.0000000000000000e+00 0.0000000000000000e+00 0
0.0000000000000000e+00 0.0000000000000000e+00 0
0.0000000000000000e+00 0.0000000000000000e+00 0
0.0000000000000000e+00 0.0000000000000000e+00 0
0.0000000000000000e+00 0.0000000000000000e+00 0
0.0000000000000000e+00 0.0000000000000000e+00 0
0.0000000000000000e+00 0.0000000000000000e+00 0
0.0000000000000000e+00 0.0000000000000000e+00 0
0.0000000000000000e+00 0.0000000000000000e+00 0
0.0000000000000000e+00 0.0000000000000000e+00 0
0.0000000000000000e+00 0.0000000000000000e+00 0
0.0000000000000000e+00 0.0000000000000000e+00 0
0.0000000000000000e+00 0.0000000000000000e+00 0

VECTORS Displacement float
0.0000000000000000e+00 0.0000000000000000e+00 0
1.5713453428550859e-03 2.1166945401605206e-03 0
6.0414107423495021e-04 1.0549846750790930e-03 0
0.0000000000000000e+00 0.0000000000000000e+00 0
1.6059029142622052e-03 -2.3132601053241580e-03 0
6.0212449379112734e-04 -1.1421356248979807e-03 0
5.3404355389695991e-03 4.0170984227319052e-03 0
3.1933055132415292e-03 3.1202326060804750e-03 0
5.4198948388908038e-03 -4.3401327723860857e-03 0
3.2825448127802616e-03 -3.3919188150758313e-03 0
1.1114292659249788e-02 5.6027771403712786e-03 0
8.0260659022120175e-03 4.8229417944926321e-03 0
1.1163554615861122e-02 -6.0469249713269594e-03 0
8.0638330980440757e-03 -5.2166701105274705e-03 0
1.8514054345865109e-02 7.2318309262290222e-03 0
1.4567210653320709e-02 6.4189172764529921e-03 0
1.8628479210843180e-02 -7.6386427976581775e-03 0
1.4682544564762503e-02 -6.8525226682755510e-03 0
2.7829249740858632e-02 8.5983116146815565e-03 0
2.2978871784271746e-02 7.9639426774668690e-03 0
2.7866636583034690e-02 -9.1802468342877599e-03 0
2.3029785530737194e-02 -8.4160412226458349e-03 0
3.8468148367806765e-02 9.6042001215713279e-03 0
3.3029811570099848e-02 9.1233719937016296e-03 0
3.8631088277926988e-02 -1.0382589820840407e-02 0
3.3132925070183041e-02 -9.8344789229321463e-03 0
5.0221225372671645e-02 1.0614323257293921e-02 0
4.4172047892168997e-02 1.0110776381931259e-02 0
5.0309407772376087e-02 -1.1432685946002524e-02 0
4.4312903449726493e-02 -1.0908028422838396e-02 0
6.3053888297007921e-02 1.1454672013999842e-02 0
5.6519341443167566e-02 1.1062489576629340e-02 0
6.3185927693844290e-02 -1.2373336856297620e-02 0
5.6615329444107590e-02 -1.1929274731644028e-02 0
7.6858577324637564e-02 1.2054359482476795e-02 0
6.9849456265225124e-02 1.1786895672048379e-02 0
7.6910755485576285e-02 -1.3055760319100109e-02 0
6.9972796132213674e-02 -1.2738764312157027e-02 0
9.1138132314663584e-02 1.2455539720146031e-02 0
8.3967305665780367e-02 1.2252668602705049e-02 0
9.1225329114788895e-02 -1.3636072235924935e-02 0
8.3981223201248539e-02 -1.3358060229421301e-02 0
1.0604191275518213e-01 1.2932853883225310e-02 0
9.8480107192287114e-02 1.2702741492995984e-02 0
1.0614991278014402e-01 -1.4065179475081227e-02 0
9.8619448227178205e-02 -1.3866395468007425e-02 0
1.2151975847030122e-01 1.3157876851297564e-02 0
1.1375751323291176e-01 1.3083434966071422e-02 0
1.2155904426992512e-01 -1.4310509328312253e-02 0
1.1382314777663169e-01 -1.4213065401029328e-02 0
1.3709768356486135e-01 1.3079613909667484e-02 0
1.2929171669617662e-01 1.3163400171840095e-02 0
1.3717682754096253e-01 -1.4320451542624957e-02 0
1.2935227891175330e-01 -1.4364180628577878e-02 0
1.5227553420913920e-01 1.2587189355802770e-02 0
1.4479829026370694e-01 1.2859143613586713e-02 0
1.5228711885371768e-01 -1.3889161388464284e-02 0
1.4484540123424472e-01 -1.4130096881918261e-02 0
1.6657128127078591e-01 1.2163580157729739e-02 0
1.5952470169766875e-01 1.2339732329687755e-02 0
1.6666982158931465e-01 -1.3474793669606808e-02 0
1.5956218857142901e-01 -1.3661515080791345e-02 0
1.8061601687507595e-01 1.2045794518964197e-02 0
1.7357981708848014e-01 1.2092517134094618e-02 0
1.8062898566469410e-01 -1.3317594225053596e-02 0
1.7366976063135242e-01 -1.3357969784777574e-02 0
1.9468600621191764e-01 1.2003566438232569e-02 0
1.8764951678367608e-01 1.2007164103053327e-02 0
1.9470198087830787e-01 -1.3450938915064081e-02 0
1.8761419695140424e-01 -1.3366995489152184e-02 0
2.0888127667366554e-01 1.2039835890835958e-02 0
2.0890343412524087e-01 3.5144585347885848e-03 0
2.0176919608194299e-01 1.2024303525098983e-02 0
2.0888519418451756e-01 7.7710570590495461e-03 0
2.0896174593073485e-01 -4.9911252400026314e-03 0
2.0893447311121666e-01 -7.3762584523790495e-04 0
2.0897947235785447e-01 -1.3522499988549722e-02 0
2.0185030914731816e-01 -1.3510488611434782e-02 0
2.0897616059317461e-01 -9.2524272046297998e-03 0

VECTORS Stress float
1.4443267122309416e+02 -2.2334097616714331e+01 0
1.3748774023840099e+02 -2.9471829559900602e+00 0
1.3921566188980219e+02 -6.1126549267789905e+00 0
4.0701852294185983e+00 -1.6409247970928810e+01 0
-4.1599562455779306e+00 3.1191038980137282e+00 0
-2.1708960541790958e+00 -1.6866639962256187e+00 0
1.3859638805827237e+02 -1.2054928514182835e+01 0
1.3795295068976989e+02 -7.3362349587114615e+00 0
-2.9812940552667309e+00 -8.1543674816833001e-02 0
-3.6907880740180241e+00 1.8112307589331995e+00 0
1.3816889485250465e+02 -1.5810719784429462e+01 0
1.3845957310949265e+02 -1.4169441091976086e+01 0
-3.0387134280974966e+00 4.0579759237086233e-01 0
-2.9404663083518683e+00 1.2665935273499240e-02 0
1.3716948196381333e+02 -2.0158746747577389e+01 0
1.3768035416077296e+02 -1.7914145796518419e+01 0
-2.5923349930582891e+00 4.8785584365991408e-01 0
-2.8403984215706917e+00 5.3504840614639360e-01 0
1.3547882871667898e+02 -2.3776832391875033e+01 0
1.3641820423397098e+02 -2.2122839637839437e+01 0
-1.7626000205612424e+00 3.8267944630489925e-01 0
-2.2151897440270183e+00 4.1936536657964218e-01 0
1.3315032076434053e+02 -2.6296470178235658e+01 0
1.3443905725580109e+02 -2.5196288344002333e+01 0
-5.3967988615790219e-01 1.9560218875674451e-01 0
-1.2546749795600629e+00 3.2574306589370483e-01 0
1.3014755437766416e+02 -2.8210187875182022e+01 0
1.3179353052957717e+02 -2.7296134243964541e+01 0
1.0386760815079974e+00 -1.3945493558853173e-01 0
1.7206108075852988e-01 5.9626517341781593e-02 0
1.2641932372549928e+02 -2.9769849721702670e+01 0
1.2836030192628988e+02 -2.9064218893208512e+01 0
2.8943112733557363e+00 -5.9254510918159653e-01 0
1.9333552237595661e+00 -3.4722139012116493e-01 0
1.2211582133542180e+02 -3.0567553340292200e+01 0
1.2429074133116160e+02 -3.0262194164471509e+01 0
5.0391663620262861e+00 -1.1437980523263764e+00 0
3.9686145426529151e+00 -8.8369011614355841e-01 0
1.1741825995909302e+02 -3.0338805016150943e+01 0
1.1981063343272633e+02 -3.0506210195086965e+01 0
7.3980011812570474e+00 -1.8153597455651571e+00 0
6.2219101136806074e+00 -1.4901883192742496e+00 0
1.1196062260454798e+02 -3.0227154719217026e+01 0
1.1479051388415621e+02 -3.0259170481875568e+01 0
9.9212603110774396e+00 -2.5732560805235636e+00 0
8.6367316548019950e+00 -2.1869132345175171e+00 0
1.0612458063326415e+02 -2.9515440156249451e+01 0
1.0906181926144824e+02 -3.0036450022759659e+01 0
1.2568540545615569e+01 -3.3951458436247144e+00 0
1.1215503595906924e+01 -2.9521129792607450e+00 0
1.0014176397481276e+02 -2.7646660659420640e+01 0
1.0313794158331848e+02 -2.8739835699514501e+01 0
1.5409636627540383e+01 -4.0755339416006890e+00 0
1.3952705872579344e+01 -3.7334936797518541e+00 0
9.3695017813852417e+01 -2.4963504548957854e+01 0
9.7014800518076825e+01 -2.6317247706829985e+01 0
1.8300572980805789e+01 -4.6731479282939183e+00 0
1.6877390917295710e+01 -4.3474306421409530e+00 0
8.5647037112775195e+01 -2.1499424878492633e+01 0
9.0033262698862970e+01 -2.3538345714299624e+01 0
2.0521605397162936e+01 -4.9732470865499749e+00 0
1.9583707711478766e+01 -5.0356135596501872e+00 0
7.3860407304775691e+01 -1.6714954077395500e+01 0
8.0207917805562062e+01 -1.8399109443611518e+01 0
2.1325260928060580e+01 -4.2627774193542400e+00 0
2.0894604429583069e+01 -4.1776199390711675e+00 0
5.8491756483510386e+01 -2.7826832154504860e+01 0
6.7149893773245878e+01 -2.3356864095307088e+01 0
2.5010961797536083e+01 -1.2770871025956215e+01 0
2.3419369446166918e+01 -9.2693107296352153e+00 0
2.6090820974188617e+01 6.8125253805887141e+01 0
1.5394818460015713e+01 6.5138430292776604e+01 0
4.4754781181264129e+01 -1.2418209965600475e+00 0
1.8859092499565733e+01 7.3243430371697912e+01 0
1.1898947983539102e+01 4.3049517483871554e+01 0
1.3509243682279021e+01 5.3144871091811652e+01 0
3.4801278507565314e+00 3.4861207422947942e+01 0
1.9890153455310262e+01 -8.6614300032239910e-01 0
9.0982880476827290e+00 3.6135924766475874e+01 0

