# vtk DataFile Version 2.0

ASCII

DATASET UNSTRUCTURED_GRID

POINTS 79 float 

-5.0000000000000003e-02  0.0000000000000000e+00  0.0000000000000000e+00
-5.0000000000000003e-02  5.5555555555555552e-02  0.0000000000000000e+00
-5.0000000000000003e-02  2.7777777777777776e-02  0.0000000000000000e+00
5.0000000000000003e-02  0.0000000000000000e+00  0.0000000000000000e+00
5.0000000000000003e-02  5.5555555555555552e-02  0.0000000000000000e+00
5.0000000000000003e-02  2.7777777777777776e-02  0.0000000000000000e+00
-5.0000000000000003e-02  1.1111111111111110e-01  0.0000000000000000e+00
-5.0000000000000003e-02  8.3333333333333329e-02  0.0000000000000000e+00
5.0000000000000003e-02  1.1111111111111110e-01  0.0000000000000000e+00
5.0000000000000003e-02  8.3333333333333329e-02  0.0000000000000000e+00
-5.0000000000000003e-02  1.6666666666666666e-01  0.0000000000000000e+00
-5.0000000000000003e-02  1.3888888888888890e-01  0.0000000000000000e+00
5.0000000000000003e-02  1.6666666666666666e-01  0.0000000000000000e+00
5.0000000000000003e-02  1.3888888888888890e-01  0.0000000000000000e+00
-5.0000000000000003e-02  2.2222222222222221e-01  0.0000000000000000e+00
-5.0000000000000003e-02  1.9444444444444442e-01  0.0000000000000000e+00
5.0000000000000003e-02  2.2222222222222221e-01  0.0000000000000000e+00
5.0000000000000003e-02  1.9444444444444442e-01  0.0000000000000000e+00
-5.0000000000000003e-02  2.7777777777777779e-01  0.0000000000000000e+00
-5.0000000000000003e-02  2.5000000000000000e-01  0.0000000000000000e+00
5.0000000000000003e-02  2.7777777777777779e-01  0.0000000000000000e+00
5.0000000000000003e-02  2.5000000000000000e-01  0.0000000000000000e+00
-5.0000000000000003e-02  3.3333333333333331e-01  0.0000000000000000e+00
-5.0000000000000003e-02  3.0555555555555558e-01  0.0000000000000000e+00
5.0000000000000003e-02  3.3333333333333331e-01  0.0000000000000000e+00
5.0000000000000003e-02  3.0555555555555558e-01  0.0000000000000000e+00
-5.0000000000000003e-02  3.8888888888888884e-01  0.0000000000000000e+00
-5.0000000000000003e-02  3.6111111111111105e-01  0.0000000000000000e+00
5.0000000000000003e-02  3.8888888888888884e-01  0.0000000000000000e+00
5.0000000000000003e-02  3.6111111111111105e-01  0.0000000000000000e+00
-5.0000000000000003e-02  4.4444444444444442e-01  0.0000000000000000e+00
-5.0000000000000003e-02  4.1666666666666663e-01  0.0000000000000000e+00
5.0000000000000003e-02  4.4444444444444442e-01  0.0000000000000000e+00
5.0000000000000003e-02  4.1666666666666663e-01  0.0000000000000000e+00
-5.0000000000000003e-02  5.0000000000000000e-01  0.0000000000000000e+00
-5.0000000000000003e-02  4.7222222222222221e-01  0.0000000000000000e+00
5.0000000000000003e-02  5.0000000000000000e-01  0.0000000000000000e+00
5.0000000000000003e-02  4.7222222222222221e-01  0.0000000000000000e+00
-5.0000000000000003e-02  5.5555555555555558e-01  0.0000000000000000e+00
-5.0000000000000003e-02  5.2777777777777779e-01  0.0000000000000000e+00
5.0000000000000003e-02  5.5555555555555558e-01  0.0000000000000000e+00
5.0000000000000003e-02  5.2777777777777779e-01  0.0000000000000000e+00
-5.0000000000000003e-02  6.1111111111111105e-01  0.0000000000000000e+00
-5.0000000000000003e-02  5.8333333333333326e-01  0.0000000000000000e+00
5.0000000000000003e-02  6.1111111111111105e-01  0.0000000000000000e+00
5.0000000000000003e-02  5.8333333333333326e-01  0.0000000000000000e+00
-5.0000000000000003e-02  6.6666666666666663e-01  0.0000000000000000e+00
-5.0000000000000003e-02  6.3888888888888884e-01  0.0000000000000000e+00
5.0000000000000003e-02  6.6666666666666663e-01  0.0000000000000000e+00
5.0000000000000003e-02  6.3888888888888884e-01  0.0000000000000000e+00
-5.0000000000000003e-02  7.2222222222222221e-01  0.0000000000000000e+00
-5.0000000000000003e-02  6.9444444444444442e-01  0.0000000000000000e+00
5.0000000000000003e-02  7.2222222222222221e-01  0.0000000000000000e+00
5.0000000000000003e-02  6.9444444444444442e-01  0.0000000000000000e+00
-5.0000000000000003e-02  7.7777777777777768e-01  0.0000000000000000e+00
-5.0000000000000003e-02  7.5000000000000000e-01  0.0000000000000000e+00
5.0000000000000003e-02  7.7777777777777768e-01  0.0000000000000000e+00
5.0000000000000003e-02  7.5000000000000000e-01  0.0000000000000000e+00
-5.0000000000000003e-02  8.3333333333333326e-01  0.0000000000000000e+00
-5.0000000000000003e-02  8.0555555555555547e-01  0.0000000000000000e+00
5.0000000000000003e-02  8.3333333333333326e-01  0.0000000000000000e+00
5.0000000000000003e-02  8.0555555555555547e-01  0.0000000000000000e+00
-5.0000000000000003e-02  8.8888888888888884e-01  0.0000000000000000e+00
-5.0000000000000003e-02  8.6111111111111105e-01  0.0000000000000000e+00
5.0000000000000003e-02  8.8888888888888884e-01  0.0000000000000000e+00
5.0000000000000003e-02  8.6111111111111105e-01  0.0000000000000000e+00
-5.0000000000000003e-02  9.4444444444444442e-01  0.0000000000000000e+00
-5.0000000000000003e-02  9.1666666666666663e-01  0.0000000000000000e+00
5.0000000000000003e-02  9.4444444444444442e-01  0.0000000000000000e+00
5.0000000000000003e-02  9.1666666666666663e-01  0.0000000000000000e+00
-5.0000000000000003e-02  1.0000000000000000e+00  0.0000000000000000e+00
-1.6666666666666670e-02  1.0000000000000000e+00  0.0000000000000000e+00
-5.0000000000000003e-02  9.7222222222222221e-01  0.0000000000000000e+00
-3.3333333333333340e-02  1.0000000000000000e+00  0.0000000000000000e+00
1.6666666666666663e-02  1.0000000000000000e+00  0.0000000000000000e+00
-3.4694469519536142e-18  1.0000000000000000e+00  0.0000000000000000e+00
5.0000000000000003e-02  1.0000000000000000e+00  0.0000000000000000e+00
5.0000000000000003e-02  9.7222222222222221e-01  0.0000000000000000e+00
3.3333333333333333e-02  1.0000000000000000e+00  0.0000000000000000e+00

CELLS 0 0


CELL_TYPES 0


POINT_DATA 79

VECTORS VertexNormals float

0.0000000000000000e+00 0.0000000000000000e+00 0
0.0000000000000000e+00 0.0000000000000000e+00 0
0.0000000000000000e+00 0.0000000000000000e+00 0
0.0000000000000000e+00 0.0000000000000000e+00 0
0.0000000000000000e+00 0.0000000000000000e+00 0
0.0000000000000000e+00 0.0000000000000000e+00 0
0.0000000000000000e+00 0.0000000000000000e+00 0
0.0000000000000000e+00 0.0000000000000000e+00 0
0.0000000000000000e+00 0.0000000000000000e+00 0
0.0000000000000000e+00 0.0000000000000000e+00 0
0.0000000000000000e+00 0.0000000000000000e+00 0
0.0000000000000000e+00 0.0000000000000000e+00 0
0.0000000000000000e+00 0.0000000000000000e+00 0
0.0000000000000000e+00 0.0000000000000000e+00 0
0.0000000000000000e+00 0.0000000000000000e+00 0
0.0000000000000000e+00 0.0000000000000000e+00 0
0.0000000000000000e+00 0.0000000000000000e+00 0
0.0000000000000000e+00 0.0000000000000000e+00 0
0.0000000000000000e+00 0.0000000000000000e+00 0
0.0000000000000000e+00 0.0000000000000000e+00 0
0.0000000000000000e+00 0.0000000000000000e+00 0
0.0000000000000000e+00 0.0000000000000000e+00 0
0.0000000000000000e+00 0.0000000000000000e+00 0
0.0000000000000000e+00 0.0000000000000000e+00 0
0.0000000000000000e+00 0.0000000000000000e+00 0
0.0000000000000000e+00 0.0000000000000000e+00 0
0.0000000000000000e+00 0.0000000000000000e+00 0
0.0000000000000000e+00 0.0000000000000000e+00 0
0.0000000000000000e+00 0.0000000000000000e+00 0
0.0000000000000000e+00 0.0000000000000000e+00 0
0.0000000000000000e+00 0.0000000000000000e+00 0
0.0000000000000000e+00 0.0000000000000000e+00 0
0.0000000000000000e+00 0.0000000000000000e+00 0
0.0000000000000000e+00 0.0000000000000000e+00 0
0.0000000000000000e+00 0.0000000000000000e+00 0
0.0000000000000000e+00 0.0000000000000000e+00 0
0.0000000000000000e+00 0.0000000000000000e+00 0
0.0000000000000000e+00 0.0000000000000000e+00 0
0.0000000000000000e+00 0.0000000000000000e+00 0
0.0000000000000000e+00 0.0000000000000000e+00 0
0.0000000000000000e+00 0.0000000000000000e+00 0
0.0000000000000000e+00 0.0000000000000000e+00 0
0.0000000000000000e+00 0.0000000000000000e+00 0
0.0000000000000000e+00 0.0000000000000000e+00 0
0.0000000000000000e+00 0.0000000000000000e+00 0
0.0000000000000000e+00 0.0000000000000000e+00 0
0.0000000000000000e+00 0.0000000000000000e+00 0
0.0000000000000000e+00 0.0000000000000000e+00 0
0.0000000000000000e+00 0.0000000000000000e+00 0
0.0000000000000000e+00 0.0000000000000000e+00 0
0.0000000000000000e+00 0.0000000000000000e+00 0
0.0000000000000000e+00 0.0000000000000000e+00 0
0.0000000000000000e+00 0.0000000000000000e+00 0
0.0000000000000000e+00 0.0000000000000000e+00 0
0.0000000000000000e+00 0.0000000000000000e+00 0
0.0000000000000000e+00 0.0000000000000000e+00 0
0.0000000000000000e+00 0.0000000000000000e+00 0
0.0000000000000000e+00 0.0000000000000000e+00 0
0.0000000000000000e+00 0.0000000000000000e+00 0
0.0000000000000000e+00 0.0000000000000000e+00 0
0.0000000000000000e+00 0.0000000000000000e+00 0
0.0000000000000000e+00 0.0000000000000000e+00 0
0.0000000000000000e+00 0.0000000000000000e+00 0
0.0000000000000000e+00 0.0000000000000000e+00 0
0.0000000000000000e+00 0.0000000000000000e+00 0
0.0000000000000000e+00 0.0000000000000000e+00 0
0.0000000000000000e+00 0.0000000000000000e+00 0
0.0000000000000000e+00 0.0000000000000000e+00 0
0.0000000000000000e+00 0.0000000000000000e+00 0
0.0000000000000000e+00 0.0000000000000000e+00 0
0.0000000000000000e+00 0.0000000000000000e+00 0
0.0000000000000000e+00 0.0000000000000000e+00 0
0.0000000000000000e+00 0.0000000000000000e+00 0
0.0000000000000000e+00 0.0000000000000000e+00 0
0.0000000000000000e+00 0.0000000000000000e+00 0
0.0000000000000000e+00 0.0000000000000000e+00 0
0.0000000000000000e+00 0.0000000000000000e+00 0
0.0000000000000000e+00 0.0000000000000000e+00 0
0.0000000000000000e+00 0.0000000000000000e+00 0

VECTORS Displacement float
0.0000000000000000e+00 0.0000000000000000e+00 0
2.4230773042142675e-03 2.7223216597929817e-03 0
1.0948782716271122e-03 1.4456472909144832e-03 0
0.0000000000000000e+00 0.0000000000000000e+00 0
2.2973317658795149e-03 -2.6593021679108177e-03 0
9.7507597631132752e-04 -1.3854647802917317e-03 0
7.0814875071522317e-03 5.1278984104246132e-03 0
4.4494416479480981e-03 3.9662544494747515e-03 0
7.0579578403869823e-03 -4.9483325623042142e-03 0
4.3891521025750417e-03 -3.8593724907993064e-03 0
1.4158803238106964e-02 7.1808662383762781e-03 0
1.0336417635494437e-02 6.1986128053225457e-03 0
1.4088229979661261e-02 -6.9371721975326579e-03 0
1.0280126554436176e-02 -5.9661665096551967e-03 0
2.3092008884958992e-02 8.9928963412167218e-03 0
1.8420067046992131e-02 8.0953553910636869e-03 0
2.3161147300601551e-02 -8.7093904084193704e-03 0
1.8422765709466455e-02 -7.8543360022972891e-03 0
3.3973468366442258e-02 1.0764321157180189e-02 0
2.8288490425427044e-02 9.8939309281171131e-03 0
3.3871455336936585e-02 -1.0451521820684963e-02 0
2.8298567831582543e-02 -9.5586330962536027e-03 0
4.6666712260016188e-02 1.2573834429709392e-02 0
4.0063467610868660e-02 1.1648057350810207e-02 0
4.6735982752933551e-02 -1.2343530672155913e-02 0
4.0002561116706289e-02 -1.1410570692870105e-02 0
6.1511458077050579e-02 1.4474667508219116e-02 0
5.3802494325501223e-02 1.3521062719446662e-02 0
6.1481542255613829e-02 -1.4101665145309184e-02 0
5.3876685490932413e-02 -1.3206865662706176e-02 0
7.8464033916331444e-02 1.6276243359030135e-02 0
6.9767078123741735e-02 1.5388168471549753e-02 0
7.8476306112729516e-02 -1.5938308215824988e-02 0
6.9693077574813328e-02 -1.5035550332543213e-02 0
9.7473476152802899e-02 1.7937993676295935e-02 0
8.7697272962891717e-02 1.7145360482857246e-02 0
9.7452558494966757e-02 -1.7498226954075900e-02 0
8.7768503482933774e-02 -1.6751799255788576e-02 0
1.1802398794506691e-01 1.9272174204926006e-02 0
1.0761668571823998e-01 1.8620976520084702e-02 0
1.1798383128865403e-01 -1.8893224831628010e-02 0
1.0750775973417537e-01 -1.8215503449990046e-02 0
1.3994811935769119e-01 2.0704910217069140e-02 0
1.2876594721681900e-01 1.9970539964810765e-02 0
1.3994392815341578e-01 -2.0139054261923809e-02 0
1.2881759971481321e-01 -1.9515079696927055e-02 0
1.6355186548112605e-01 2.2036433313602749e-02 0
1.5156747292460854e-01 2.1405694884542432e-02 0
1.6345823220066374e-01 -2.1443919879822561e-02 0
1.5145253348950494e-01 -2.0806334145639559e-02 0
1.8848413465884534e-01 2.3058712181714486e-02 0
1.7586596448372335e-01 2.2586028989279489e-02 0
1.8850717056629873e-01 -2.2363055924240302e-02 0
1.7588660084861865e-01 -2.1957386968538418e-02 0
2.1432982820288959e-01 2.3742690291464360e-02 0
2.0134465606068902e-01 2.3432615551830523e-02 0
2.1419891570232813e-01 -2.3068735111352705e-02 0
2.0123745389195724e-01 -2.2719454753191745e-02 0
2.4071991196497630e-01 2.4409858349533436e-02 0
2.2740077305084025e-01 2.4074421463026685e-02 0
2.4076277930771478e-01 -2.3617051841697458e-02 0
2.2739528256965194e-01 -2.3373097182039053e-02 0
2.6791929049431584e-01 2.4740654689656236e-02 0
2.5429562404470313e-01 2.4637036276883864e-02 0
2.6783990273331715e-01 -2.3892860045731084e-02 0
2.5426079527255013e-01 -2.3786325084376489e-02 0
2.9505118809414954e-01 2.4763562715868541e-02 0
2.8149289390270771e-01 2.4766795681089134e-02 0
2.9504332237890579e-01 -2.3934150850729936e-02 0
2.8145665339701653e-01 -2.3944890786468470e-02 0
3.2207521960952618e-01 2.4727208257048910e-02 0
3.2207266535516971e-01 8.4872566913171271e-03 0
3.0857191150099050e-01 2.4741674707666046e-02 0
3.2208028360979607e-01 1.6614450815210523e-02 0
3.2198260175907856e-01 -7.7288029137177524e-03 0
3.2203864431734786e-01 3.7030944105208042e-04 0
3.2188690309390389e-01 -2.3830776887736049e-02 0
3.0850939550215406e-01 -2.3877787599380626e-02 0
3.2192105854188857e-01 -1.5799397365556123e-02 0

VECTORS Stress float
1.8194222997151121e+02 -1.2565419658440561e+01 0
1.7589928319032808e+02 -9.5784341893134890e+00 0
1.7746193843883970e+02 -8.2917695671677230e+00 0
-5.9718405422239755e+01 2.2739046480553498e+00 0
-6.6803104991502593e+01 4.4817872815040385e+00 0
-6.5135219180669921e+01 3.0000336046882987e+00 0
1.7656479259641409e+02 -1.8074561790018997e+01 0
1.7618503897910097e+02 -1.3776532498716579e+01 0
-6.5670386761405112e+01 7.3027562686802687e+00 0
-6.6335854285176652e+01 5.9803226782684593e+00 0
1.7564944574909180e+02 -2.4624104409960403e+01 0
1.7618822634703324e+02 -2.1562821151720858e+01 0
-6.5669102650001804e+01 9.9643296921988238e+00 0
-6.5587652414028653e+01 8.7202781668217426e+00 0
1.7405298589218208e+02 -3.0038773756298415e+01 0
1.7487702519979595e+02 -2.7432521811905247e+01 0
-6.5315506811290973e+01 1.2000113396707773e+01 0
-6.5498479182906010e+01 1.1033375351154730e+01 0
1.7152063465567980e+02 -3.5060796598001474e+01 0
1.7292210403761689e+02 -3.2566618214489083e+01 0
-6.4537644308232018e+01 1.4271457689668130e+01 0
-6.4968856058386450e+01 1.3090707310559516e+01 0
1.6779231352143489e+02 -4.0162517079959180e+01 0
1.6988549943576433e+02 -3.7567716682884132e+01 0
-6.3485115223691608e+01 1.6366413924697216e+01 0
-6.4097409648678848e+01 1.5373399313461352e+01 0
1.6292936432285467e+02 -4.4964495715614589e+01 0
1.6554041441066977e+02 -4.2691463889352363e+01 0
-6.2143243528793406e+01 1.8400063459541560e+01 0
-6.2913085373859502e+01 1.7346813178744071e+01 0
1.5709938329629071e+02 -4.9052651116465668e+01 0
1.6012719942175474e+02 -4.7076927856877823e+01 0
-6.0505058511806013e+01 2.0361441116117966e+01 0
-6.1340057275986872e+01 1.9483382192169717e+01 0
1.5057647832922703e+02 -5.2313435858713696e+01 0
1.5382776856603189e+02 -5.0840214148048503e+01 0
-5.8646371992293780e+01 2.1528892848889583e+01 0
-5.9581688808462786e+01 2.0969351326899300e+01 0
1.4421471671993467e+02 -5.3428481998679473e+01 0
1.4740040679142135e+02 -5.2988833014765184e+01 0
-5.6440624024093154e+01 2.2246745239866630e+01 0
-5.7562701124939480e+01 2.1885841797618866e+01 0
1.3707375785210078e+02 -5.4530643215564005e+01 0
1.4076700995005731e+02 -5.3933953222894409e+01 0
-5.3915153808458555e+01 2.2737500681568786e+01 0
-5.5217588521527446e+01 2.2522591340742760e+01 0
1.2945644551984785e+02 -5.5138881088404773e+01 0
1.3328972458598761e+02 -5.5012727072453742e+01 0
-5.1137019009551715e+01 2.2905216427858601e+01 0
-5.2570815639513185e+01 2.2906543819384964e+01 0
1.2186283834820294e+02 -5.4510639925254338e+01 0
1.2560171749007804e+02 -5.5067949206975875e+01 0
-4.8108940720118937e+01 2.2502264337914280e+01 0
-4.9640608766377333e+01 2.2872992252804842e+01 0
1.1424478759764685e+02 -5.2803265732927734e+01 0
1.1809381595815053e+02 -5.3700498891209222e+01 0
-4.4888727388143302e+01 2.1556286967946072e+01 0
-4.6519344043097988e+01 2.2027042176577538e+01 0
1.0564470672097858e+02 -5.0253441953879232e+01 0
1.1021296477518155e+02 -5.1756462828462624e+01 0
-4.1547911720989134e+01 2.0469686497085092e+01 0
-4.3237435191558646e+01 2.1060994252787079e+01 0
9.5226229636505536e+01 -4.5554804754539681e+01 0
1.0032977968438115e+02 -4.7696294958090498e+01 0
-3.8227414055130929e+01 1.8620667834962418e+01 0
-3.9882285473777806e+01 1.9387158157181300e+01 0
9.0851144702172135e+01 -4.8000006753275187e+01 0
9.3716530634691267e+01 -4.7302350644968712e+01 0
-3.6282992711404844e+01 2.1250669692740924e+01 0
-3.7095263635754335e+01 1.9936043384002694e+01 0
3.1978861235435410e+01 8.4996504072266745e+00 0
6.6095314929527405e-01 1.0210328707322844e+01 0
7.1493413037576971e+01 -3.0971363267710231e+01 0
8.8494153658743855e+00 1.7962147892520452e+01 0
-2.5274517920285220e+00 -1.3246384196592521e+01 0
-1.4793901689432403e+00 -2.8431279063917057e+00 0
-2.7977084612324582e+01 -6.2686773957308333e+00 0
-3.2589716710524804e+01 1.3033446419209120e+01 0
-8.4301090411593620e+00 -1.7063639164126503e+01 0

