# vtk DataFile Version 2.0

ASCII

DATASET UNSTRUCTURED_GRID

POINTS 79 float 

-5.0000000000000003e-02  0.0000000000000000e+00  0.0000000000000000e+00
-5.0000000000000003e-02  5.5555555555555552e-02  0.0000000000000000e+00
-5.0000000000000003e-02  2.7777777777777776e-02  0.0000000000000000e+00
5.0000000000000003e-02  0.0000000000000000e+00  0.0000000000000000e+00
5.0000000000000003e-02  5.5555555555555552e-02  0.0000000000000000e+00
5.0000000000000003e-02  2.7777777777777776e-02  0.0000000000000000e+00
-5.0000000000000003e-02  1.1111111111111110e-01  0.0000000000000000e+00
-5.0000000000000003e-02  8.3333333333333329e-02  0.0000000000000000e+00
5.0000000000000003e-02  1.1111111111111110e-01  0.0000000000000000e+00
5.0000000000000003e-02  8.3333333333333329e-02  0.0000000000000000e+00
-5.0000000000000003e-02  1.6666666666666666e-01  0.0000000000000000e+00
-5.0000000000000003e-02  1.3888888888888890e-01  0.0000000000000000e+00
5.0000000000000003e-02  1.6666666666666666e-01  0.0000000000000000e+00
5.0000000000000003e-02  1.3888888888888890e-01  0.0000000000000000e+00
-5.0000000000000003e-02  2.2222222222222221e-01  0.0000000000000000e+00
-5.0000000000000003e-02  1.9444444444444442e-01  0.0000000000000000e+00
5.0000000000000003e-02  2.2222222222222221e-01  0.0000000000000000e+00
5.0000000000000003e-02  1.9444444444444442e-01  0.0000000000000000e+00
-5.0000000000000003e-02  2.7777777777777779e-01  0.0000000000000000e+00
-5.0000000000000003e-02  2.5000000000000000e-01  0.0000000000000000e+00
5.0000000000000003e-02  2.7777777777777779e-01  0.0000000000000000e+00
5.0000000000000003e-02  2.5000000000000000e-01  0.0000000000000000e+00
-5.0000000000000003e-02  3.3333333333333331e-01  0.0000000000000000e+00
-5.0000000000000003e-02  3.0555555555555558e-01  0.0000000000000000e+00
5.0000000000000003e-02  3.3333333333333331e-01  0.0000000000000000e+00
5.0000000000000003e-02  3.0555555555555558e-01  0.0000000000000000e+00
-5.0000000000000003e-02  3.8888888888888884e-01  0.0000000000000000e+00
-5.0000000000000003e-02  3.6111111111111105e-01  0.0000000000000000e+00
5.0000000000000003e-02  3.8888888888888884e-01  0.0000000000000000e+00
5.0000000000000003e-02  3.6111111111111105e-01  0.0000000000000000e+00
-5.0000000000000003e-02  4.4444444444444442e-01  0.0000000000000000e+00
-5.0000000000000003e-02  4.1666666666666663e-01  0.0000000000000000e+00
5.0000000000000003e-02  4.4444444444444442e-01  0.0000000000000000e+00
5.0000000000000003e-02  4.1666666666666663e-01  0.0000000000000000e+00
-5.0000000000000003e-02  5.0000000000000000e-01  0.0000000000000000e+00
-5.0000000000000003e-02  4.7222222222222221e-01  0.0000000000000000e+00
5.0000000000000003e-02  5.0000000000000000e-01  0.0000000000000000e+00
5.0000000000000003e-02  4.7222222222222221e-01  0.0000000000000000e+00
-5.0000000000000003e-02  5.5555555555555558e-01  0.0000000000000000e+00
-5.0000000000000003e-02  5.2777777777777779e-01  0.0000000000000000e+00
5.0000000000000003e-02  5.5555555555555558e-01  0.0000000000000000e+00
5.0000000000000003e-02  5.2777777777777779e-01  0.0000000000000000e+00
-5.0000000000000003e-02  6.1111111111111105e-01  0.0000000000000000e+00
-5.0000000000000003e-02  5.8333333333333326e-01  0.0000000000000000e+00
5.0000000000000003e-02  6.1111111111111105e-01  0.0000000000000000e+00
5.0000000000000003e-02  5.8333333333333326e-01  0.0000000000000000e+00
-5.0000000000000003e-02  6.6666666666666663e-01  0.0000000000000000e+00
-5.0000000000000003e-02  6.3888888888888884e-01  0.0000000000000000e+00
5.0000000000000003e-02  6.6666666666666663e-01  0.0000000000000000e+00
5.0000000000000003e-02  6.3888888888888884e-01  0.0000000000000000e+00
-5.0000000000000003e-02  7.2222222222222221e-01  0.0000000000000000e+00
-5.0000000000000003e-02  6.9444444444444442e-01  0.0000000000000000e+00
5.0000000000000003e-02  7.2222222222222221e-01  0.0000000000000000e+00
5.0000000000000003e-02  6.9444444444444442e-01  0.0000000000000000e+00
-5.0000000000000003e-02  7.7777777777777768e-01  0.0000000000000000e+00
-5.0000000000000003e-02  7.5000000000000000e-01  0.0000000000000000e+00
5.0000000000000003e-02  7.7777777777777768e-01  0.0000000000000000e+00
5.0000000000000003e-02  7.5000000000000000e-01  0.0000000000000000e+00
-5.0000000000000003e-02  8.3333333333333326e-01  0.0000000000000000e+00
-5.0000000000000003e-02  8.0555555555555547e-01  0.0000000000000000e+00
5.0000000000000003e-02  8.3333333333333326e-01  0.0000000000000000e+00
5.0000000000000003e-02  8.0555555555555547e-01  0.0000000000000000e+00
-5.0000000000000003e-02  8.8888888888888884e-01  0.0000000000000000e+00
-5.0000000000000003e-02  8.6111111111111105e-01  0.0000000000000000e+00
5.0000000000000003e-02  8.8888888888888884e-01  0.0000000000000000e+00
5.0000000000000003e-02  8.6111111111111105e-01  0.0000000000000000e+00
-5.0000000000000003e-02  9.4444444444444442e-01  0.0000000000000000e+00
-5.0000000000000003e-02  9.1666666666666663e-01  0.0000000000000000e+00
5.0000000000000003e-02  9.4444444444444442e-01  0.0000000000000000e+00
5.0000000000000003e-02  9.1666666666666663e-01  0.0000000000000000e+00
-5.0000000000000003e-02  1.0000000000000000e+00  0.0000000000000000e+00
-1.6666666666666670e-02  1.0000000000000000e+00  0.0000000000000000e+00
-5.0000000000000003e-02  9.7222222222222221e-01  0.0000000000000000e+00
-3.3333333333333340e-02  1.0000000000000000e+00  0.0000000000000000e+00
1.6666666666666663e-02  1.0000000000000000e+00  0.0000000000000000e+00
-3.4694469519536142e-18  1.0000000000000000e+00  0.0000000000000000e+00
5.0000000000000003e-02  1.0000000000000000e+00  0.0000000000000000e+00
5.0000000000000003e-02  9.7222222222222221e-01  0.0000000000000000e+00
3.3333333333333333e-02  1.0000000000000000e+00  0.0000000000000000e+00

CELLS 0 0


CELL_TYPES 0


POINT_DATA 79

VECTORS VertexNormals float

0.0000000000000000e+00 0.0000000000000000e+00 0
0.0000000000000000e+00 0.0000000000000000e+00 0
0.0000000000000000e+00 0.0000000000000000e+00 0
0.0000000000000000e+00 0.0000000000000000e+00 0
0.0000000000000000e+00 0.0000000000000000e+00 0
0.0000000000000000e+00 0.0000000000000000e+00 0
0.0000000000000000e+00 0.0000000000000000e+00 0
0.0000000000000000e+00 0.0000000000000000e+00 0
0.0000000000000000e+00 0.0000000000000000e+00 0
0.0000000000000000e+00 0.0000000000000000e+00 0
0.0000000000000000e+00 0.0000000000000000e+00 0
0.0000000000000000e+00 0.0000000000000000e+00 0
0.0000000000000000e+00 0.0000000000000000e+00 0
0.0000000000000000e+00 0.0000000000000000e+00 0
0.0000000000000000e+00 0.0000000000000000e+00 0
0.0000000000000000e+00 0.0000000000000000e+00 0
0.0000000000000000e+00 0.0000000000000000e+00 0
0.0000000000000000e+00 0.0000000000000000e+00 0
0.0000000000000000e+00 0.0000000000000000e+00 0
0.0000000000000000e+00 0.0000000000000000e+00 0
0.0000000000000000e+00 0.0000000000000000e+00 0
0.0000000000000000e+00 0.0000000000000000e+00 0
0.0000000000000000e+00 0.0000000000000000e+00 0
0.0000000000000000e+00 0.0000000000000000e+00 0
0.0000000000000000e+00 0.0000000000000000e+00 0
0.0000000000000000e+00 0.0000000000000000e+00 0
0.0000000000000000e+00 0.0000000000000000e+00 0
0.0000000000000000e+00 0.0000000000000000e+00 0
0.0000000000000000e+00 0.0000000000000000e+00 0
0.0000000000000000e+00 0.0000000000000000e+00 0
0.0000000000000000e+00 0.0000000000000000e+00 0
0.0000000000000000e+00 0.0000000000000000e+00 0
0.0000000000000000e+00 0.0000000000000000e+00 0
0.0000000000000000e+00 0.0000000000000000e+00 0
0.0000000000000000e+00 0.0000000000000000e+00 0
0.0000000000000000e+00 0.0000000000000000e+00 0
0.0000000000000000e+00 0.0000000000000000e+00 0
0.0000000000000000e+00 0.0000000000000000e+00 0
0.0000000000000000e+00 0.0000000000000000e+00 0
0.0000000000000000e+00 0.0000000000000000e+00 0
0.0000000000000000e+00 0.0000000000000000e+00 0
0.0000000000000000e+00 0.0000000000000000e+00 0
0.0000000000000000e+00 0.0000000000000000e+00 0
0.0000000000000000e+00 0.0000000000000000e+00 0
0.0000000000000000e+00 0.0000000000000000e+00 0
0.0000000000000000e+00 0.0000000000000000e+00 0
0.0000000000000000e+00 0.0000000000000000e+00 0
0.0000000000000000e+00 0.0000000000000000e+00 0
0.0000000000000000e+00 0.0000000000000000e+00 0
0.0000000000000000e+00 0.0000000000000000e+00 0
0.0000000000000000e+00 0.0000000000000000e+00 0
0.0000000000000000e+00 0.0000000000000000e+00 0
0.0000000000000000e+00 0.0000000000000000e+00 0
0.0000000000000000e+00 0.0000000000000000e+00 0
0.0000000000000000e+00 0.0000000000000000e+00 0
0.0000000000000000e+00 0.0000000000000000e+00 0
0.0000000000000000e+00 0.0000000000000000e+00 0
0.0000000000000000e+00 0.0000000000000000e+00 0
0.0000000000000000e+00 0.0000000000000000e+00 0
0.0000000000000000e+00 0.0000000000000000e+00 0
0.0000000000000000e+00 0.0000000000000000e+00 0
0.0000000000000000e+00 0.0000000000000000e+00 0
0.0000000000000000e+00 0.0000000000000000e+00 0
0.0000000000000000e+00 0.0000000000000000e+00 0
0.0000000000000000e+00 0.0000000000000000e+00 0
0.0000000000000000e+00 0.0000000000000000e+00 0
0.0000000000000000e+00 0.0000000000000000e+00 0
0.0000000000000000e+00 0.0000000000000000e+00 0
0.0000000000000000e+00 0.0000000000000000e+00 0
0.0000000000000000e+00 0.0000000000000000e+00 0
0.0000000000000000e+00 0.0000000000000000e+00 0
0.0000000000000000e+00 0.0000000000000000e+00 0
0.0000000000000000e+00 0.0000000000000000e+00 0
0.0000000000000000e+00 0.0000000000000000e+00 0
0.0000000000000000e+00 0.0000000000000000e+00 0
0.0000000000000000e+00 0.0000000000000000e+00 0
0.0000000000000000e+00 0.0000000000000000e+00 0
0.0000000000000000e+00 0.0000000000000000e+00 0
0.0000000000000000e+00 0.0000000000000000e+00 0

VECTORS Displacement float
0.0000000000000000e+00 0.0000000000000000e+00 0
1.8683827802569040e-03 2.7446236289905323e-03 0
7.6587374934783457e-04 1.3600564306546314e-03 0
0.0000000000000000e+00 0.0000000000000000e+00 0
1.8770424153846848e-03 -2.6124340091641302e-03 0
7.6448643366875345e-04 -1.2931654494662504e-03 0
6.6464679251508219e-03 5.5404283367120905e-03 0
3.8761975214655830e-03 4.1757694078890240e-03 0
6.5260364372461879e-03 -5.4259102388910987e-03 0
3.7968005752303476e-03 -4.0272525378856078e-03 0
1.4406042065245570e-02 8.0607451418620250e-03 0
1.0161871949956096e-02 6.8316363241274821e-03 0
1.4431398335692930e-02 -7.8830028947459493e-03 0
1.0128327527835889e-02 -6.7211389599799902e-03 0
2.4649559930360318e-02 1.0306284960038561e-02 0
1.9265426937098724e-02 9.2022187132500249e-03 0
2.4494947242068618e-02 -1.0093941323277343e-02 0
1.9209942844567486e-02 -8.9703042392913282e-03 0
3.7163668604912450e-02 1.2583838123195704e-02 0
3.0586019765159421e-02 1.1429414362966267e-02 0
3.7178532316082327e-02 -1.2348022216458410e-02 0
3.0493033304160620e-02 -1.1242949812678180e-02 0
5.2451222861382082e-02 1.4875942038419354e-02 0
4.4448445794148257e-02 1.3751790585310134e-02 0
5.2302058658172584e-02 -1.4503476253166028e-02 0
4.4425987793225333e-02 -1.3418788885532338e-02 0
7.0035464016641957e-02 1.6842082902073049e-02 0
6.0989178502884822e-02 1.5889178153941141e-02 0
6.9988182560078979e-02 -1.6516568820052681e-02 0
6.0816494679244937e-02 -1.5553526151409236e-02 0
8.9699335737038324e-02 1.8559799305360197e-02 0
7.9646866841808994e-02 1.7733133656810646e-02 0
8.9621800814366659e-02 -1.8128710108128492e-02 0
7.9654650136510727e-02 -1.7344085901693378e-02 0
1.1100490725067860e-01 2.0117452241214896e-02 0
1.0015722293216406e-01 1.9343665486117573e-02 0
1.1095156858394684e-01 -1.9723157847540577e-02 0
1.0003211663278613e-01 -1.8942835688862396e-02 0
1.3396546366495932e-01 2.1712001893908622e-02 0
1.2224922114849962e-01 2.0913835280065945e-02 0
1.3391002895494220e-01 -2.1128191861242322e-02 0
1.2226412961196728e-01 -2.0428483387081205e-02 0
1.5870945012617688e-01 2.3195596048869952e-02 0
1.4614527165296137e-01 2.2472206178869969e-02 0
1.5858252563541550e-01 -2.2653980996512037e-02 0
1.4597840734363526e-01 -2.1892176953537758e-02 0
1.8502516512860581e-01 2.4556497026877823e-02 0
1.7165000353827153e-01 2.3896713925456538e-02 0
1.8501895103829516e-01 -2.3851518676379916e-02 0
1.7164553384838249e-01 -2.3298732271818043e-02 0
2.1279961383814744e-01 2.5570745833607210e-02 0
1.9879738641506989e-01 2.5108265746585163e-02 0
2.1268853431065066e-01 -2.4825355530152277e-02 0
1.9869104997525852e-01 -2.4369935534620260e-02 0
2.4141844048684188e-01 2.6306276321066874e-02 0
2.2698257617978362e-01 2.5975953569047396e-02 0
2.4143764145697841e-01 -2.5380571231252244e-02 0
2.2697479242597796e-01 -2.5158574891997059e-02 0
2.7059076200171223e-01 2.6563510369208801e-02 0
2.5601278896627755e-01 2.6491250392089542e-02 0
2.7044782192970207e-01 -2.5631161495420440e-02 0
2.5591865835628469e-01 -2.5520010707203552e-02 0
2.9953755627819328e-01 2.6614107188319434e-02 0
2.8508175279380377e-01 2.6589637916537207e-02 0
2.9959371236409682e-01 -2.5592013386001769e-02 0
2.8505875819369131e-01 -2.5649769975454019e-02 0
3.2853830158126418e-01 2.6714456059958768e-02 0
3.1402986178998965e-01 2.6659062371141184e-02 0
3.2846064720170254e-01 -2.5606870218978835e-02 0
3.1400889677529975e-01 -2.5564516658151976e-02 0
3.5754966369191582e-01 2.6793848833431916e-02 0
3.5757671647067607e-01 9.3408828681772870e-03 0
3.4302869763373872e-01 2.6770832031063889e-02 0
3.5755399134595406e-01 1.8069957997353031e-02 0
3.5764477105753412e-01 -8.1275063341216622e-03 0
3.5761262618608480e-01 6.1578541536581822e-04 0
3.5766556700765784e-01 -2.5694914347923495e-02 0
3.4303192980228325e-01 -2.5668793213237024e-02 0
3.5766151842343008e-01 -1.6904009193690693e-02 0

VECTORS Stress float
2.0265233339508535e+02 -5.8787560898161999e+00 0
1.9343355448323857e+02 -1.0693580712882525e+01 0
1.9580176876794664e+02 -6.7462089194767412e+00 0
-7.4793596266618692e+01 9.5333711872379858e+00 0
-8.4927178511686208e+01 4.0626065685119181e+00 0
-8.2536551425464879e+01 3.9153649375073578e+00 0
1.9436081087649941e+02 -2.1022818162588770e+01 0
1.9383926375759910e+02 -1.5906255661103383e+01 0
-8.3223166846987795e+01 1.0032486354795255e+01 0
-8.4226990958401970e+01 7.0530388260307140e+00 0
1.9290235691001308e+02 -3.0205360889561803e+01 0
1.9375383282480240e+02 -2.5873251494280300e+01 0
-8.3143969130418881e+01 1.4152171322920159e+01 0
-8.3069594048397562e+01 1.2267005067751963e+01 0
1.9064962663437592e+02 -3.7310512170809545e+01 0
1.9182838255331117e+02 -3.3905240753533612e+01 0
-8.2755299395933292e+01 1.7701200213747320e+01 0
-8.2948354438086170e+01 1.5967706043659524e+01 0
1.8686100906896090e+02 -4.4893106930904793e+01 0
1.8896819212681029e+02 -4.0994471556443528e+01 0
-8.2057011021392725e+01 2.1372075633296230e+01 0
-8.2435060928851911e+01 1.9504494058855862e+01 0
1.8182861911866289e+02 -5.1717761988273004e+01 0
1.8452492576785372e+02 -4.8544735911252964e+01 0
-8.1109258050825446e+01 2.4996535423511304e+01 0
-8.1672780893902683e+01 2.3210756610446861e+01 0
1.7603435312334034e+02 -5.7005416625590740e+01 0
1.7903922738864779e+02 -5.4592818085893171e+01 0
-8.0039152693605573e+01 2.7899381782382758e+01 0
-8.0599468542548237e+01 2.6682008382322717e+01 0
1.6989986666742749e+02 -6.0759833214541416e+01 0
1.7296773013683952e+02 -5.9097800533397482e+01 0
-7.8824169605703531e+01 2.9911900779530676e+01 0
-7.9478470153540229e+01 2.8923918070508979e+01 0
1.6367295701153225e+02 -6.3108631274751048e+01 0
1.6680854452161140e+02 -6.1971759424430857e+01 0
-7.7170519069761454e+01 3.1801885092437420e+01 0
-7.8016887551056030e+01 3.0866179108305261e+01 0
1.5685765520879255e+02 -6.5367812487154865e+01 0
1.6030301822621414e+02 -6.4240846168841017e+01 0
-7.5155625643802466e+01 3.3154882614631575e+01 0
-7.6188816302913963e+01 3.2489746852066133e+01 0
1.4985966549024491e+02 -6.6832817336886848e+01 0
1.5337961215789113e+02 -6.6214591107634220e+01 0
-7.2712002441315548e+01 3.4400293468287785e+01 0
-7.3988650869009319e+01 3.3786814099625957e+01 0
1.4258228739833834e+02 -6.7602315465991239e+01 0
1.4626909265637707e+02 -6.7336496086699640e+01 0
-7.0099108107752642e+01 3.4997477409849523e+01 0
-7.1411432820342753e+01 3.4883069875894805e+01 0
1.3519161867733325e+02 -6.7370918309775803e+01 0
1.3883612199118491e+02 -6.7741793061550851e+01 0
-6.7382251648825743e+01 3.4799199909719079e+01 0
-6.8752278353190917e+01 3.5033484043713813e+01 0
1.2808496496778798e+02 -6.5750930490228612e+01 0
1.3156359879504734e+02 -6.6707424415112854e+01 0
-6.4493106504777771e+01 3.4087394159065816e+01 0
-6.5951206045261017e+01 3.4484869468433452e+01 0
1.2070862661449479e+02 -6.2684606324930179e+01 0
1.2468372708940652e+02 -6.4412087046332161e+01 0
-6.1525435900869809e+01 3.2552194571453654e+01 0
-6.3038077791712674e+01 3.3493225775050554e+01 0
1.1130149406333895e+02 -5.7654177170863946e+01 0
1.1572958688506608e+02 -6.0072140559287277e+01 0
-5.8449120331761250e+01 2.9694475292200003e+01 0
-5.9972039724920016e+01 3.0669284003638875e+01 0
1.1167996040461244e+02 -5.7707292385218707e+01 0
1.1242494733178191e+02 -5.7898570168339823e+01 0
-5.7200802950377046e+01 3.8120671509577903e+01 0
-5.7600207629950795e+01 3.4107295846265195e+01 0
2.9219702803153645e+01 -1.4223553926070473e+01 0
-1.0523286263925414e+01 -9.2608810838030049e+00 0
8.6133438512277493e+01 -4.3942995773221803e+01 0
-8.7485798318513019e-01 -1.8554544398658699e+00 0
-1.2706282283363663e+01 -3.4272373222817180e+01 0
-1.2148942546150906e+01 -2.3046945892118501e+01 0
-4.5139642551959618e+01 -2.1187688215470878e+01 0
-5.2396096981693134e+01 2.1674878233044005e+01 0
-1.9835373066619688e+01 -3.7338115880298844e+01 0

