# vtk DataFile Version 2.0

ASCII

DATASET UNSTRUCTURED_GRID

POINTS 79 float 

-5.0000000000000003e-02  0.0000000000000000e+00  0.0000000000000000e+00
-5.0000000000000003e-02  5.5555555555555552e-02  0.0000000000000000e+00
-5.0000000000000003e-02  2.7777777777777776e-02  0.0000000000000000e+00
5.0000000000000003e-02  0.0000000000000000e+00  0.0000000000000000e+00
5.0000000000000003e-02  5.5555555555555552e-02  0.0000000000000000e+00
5.0000000000000003e-02  2.7777777777777776e-02  0.0000000000000000e+00
-5.0000000000000003e-02  1.1111111111111110e-01  0.0000000000000000e+00
-5.0000000000000003e-02  8.3333333333333329e-02  0.0000000000000000e+00
5.0000000000000003e-02  1.1111111111111110e-01  0.0000000000000000e+00
5.0000000000000003e-02  8.3333333333333329e-02  0.0000000000000000e+00
-5.0000000000000003e-02  1.6666666666666666e-01  0.0000000000000000e+00
-5.0000000000000003e-02  1.3888888888888890e-01  0.0000000000000000e+00
5.0000000000000003e-02  1.6666666666666666e-01  0.0000000000000000e+00
5.0000000000000003e-02  1.3888888888888890e-01  0.0000000000000000e+00
-5.0000000000000003e-02  2.2222222222222221e-01  0.0000000000000000e+00
-5.0000000000000003e-02  1.9444444444444442e-01  0.0000000000000000e+00
5.0000000000000003e-02  2.2222222222222221e-01  0.0000000000000000e+00
5.0000000000000003e-02  1.9444444444444442e-01  0.0000000000000000e+00
-5.0000000000000003e-02  2.7777777777777779e-01  0.0000000000000000e+00
-5.0000000000000003e-02  2.5000000000000000e-01  0.0000000000000000e+00
5.0000000000000003e-02  2.7777777777777779e-01  0.0000000000000000e+00
5.0000000000000003e-02  2.5000000000000000e-01  0.0000000000000000e+00
-5.0000000000000003e-02  3.3333333333333331e-01  0.0000000000000000e+00
-5.0000000000000003e-02  3.0555555555555558e-01  0.0000000000000000e+00
5.0000000000000003e-02  3.3333333333333331e-01  0.0000000000000000e+00
5.0000000000000003e-02  3.0555555555555558e-01  0.0000000000000000e+00
-5.0000000000000003e-02  3.8888888888888884e-01  0.0000000000000000e+00
-5.0000000000000003e-02  3.6111111111111105e-01  0.0000000000000000e+00
5.0000000000000003e-02  3.8888888888888884e-01  0.0000000000000000e+00
5.0000000000000003e-02  3.6111111111111105e-01  0.0000000000000000e+00
-5.0000000000000003e-02  4.4444444444444442e-01  0.0000000000000000e+00
-5.0000000000000003e-02  4.1666666666666663e-01  0.0000000000000000e+00
5.0000000000000003e-02  4.4444444444444442e-01  0.0000000000000000e+00
5.0000000000000003e-02  4.1666666666666663e-01  0.0000000000000000e+00
-5.0000000000000003e-02  5.0000000000000000e-01  0.0000000000000000e+00
-5.0000000000000003e-02  4.7222222222222221e-01  0.0000000000000000e+00
5.0000000000000003e-02  5.0000000000000000e-01  0.0000000000000000e+00
5.0000000000000003e-02  4.7222222222222221e-01  0.0000000000000000e+00
-5.0000000000000003e-02  5.5555555555555558e-01  0.0000000000000000e+00
-5.0000000000000003e-02  5.2777777777777779e-01  0.0000000000000000e+00
5.0000000000000003e-02  5.5555555555555558e-01  0.0000000000000000e+00
5.0000000000000003e-02  5.2777777777777779e-01  0.0000000000000000e+00
-5.0000000000000003e-02  6.1111111111111105e-01  0.0000000000000000e+00
-5.0000000000000003e-02  5.8333333333333326e-01  0.0000000000000000e+00
5.0000000000000003e-02  6.1111111111111105e-01  0.0000000000000000e+00
5.0000000000000003e-02  5.8333333333333326e-01  0.0000000000000000e+00
-5.0000000000000003e-02  6.6666666666666663e-01  0.0000000000000000e+00
-5.0000000000000003e-02  6.3888888888888884e-01  0.0000000000000000e+00
5.0000000000000003e-02  6.6666666666666663e-01  0.0000000000000000e+00
5.0000000000000003e-02  6.3888888888888884e-01  0.0000000000000000e+00
-5.0000000000000003e-02  7.2222222222222221e-01  0.0000000000000000e+00
-5.0000000000000003e-02  6.9444444444444442e-01  0.0000000000000000e+00
5.0000000000000003e-02  7.2222222222222221e-01  0.0000000000000000e+00
5.0000000000000003e-02  6.9444444444444442e-01  0.0000000000000000e+00
-5.0000000000000003e-02  7.7777777777777768e-01  0.0000000000000000e+00
-5.0000000000000003e-02  7.5000000000000000e-01  0.0000000000000000e+00
5.0000000000000003e-02  7.7777777777777768e-01  0.0000000000000000e+00
5.0000000000000003e-02  7.5000000000000000e-01  0.0000000000000000e+00
-5.0000000000000003e-02  8.3333333333333326e-01  0.0000000000000000e+00
-5.0000000000000003e-02  8.0555555555555547e-01  0.0000000000000000e+00
5.0000000000000003e-02  8.3333333333333326e-01  0.0000000000000000e+00
5.0000000000000003e-02  8.0555555555555547e-01  0.0000000000000000e+00
-5.0000000000000003e-02  8.8888888888888884e-01  0.0000000000000000e+00
-5.0000000000000003e-02  8.6111111111111105e-01  0.0000000000000000e+00
5.0000000000000003e-02  8.8888888888888884e-01  0.0000000000000000e+00
5.0000000000000003e-02  8.6111111111111105e-01  0.0000000000000000e+00
-5.0000000000000003e-02  9.4444444444444442e-01  0.0000000000000000e+00
-5.0000000000000003e-02  9.1666666666666663e-01  0.0000000000000000e+00
5.0000000000000003e-02  9.4444444444444442e-01  0.0000000000000000e+00
5.0000000000000003e-02  9.1666666666666663e-01  0.0000000000000000e+00
-5.0000000000000003e-02  1.0000000000000000e+00  0.0000000000000000e+00
-1.6666666666666670e-02  1.0000000000000000e+00  0.0000000000000000e+00
-5.0000000000000003e-02  9.7222222222222221e-01  0.0000000000000000e+00
-3.3333333333333340e-02  1.0000000000000000e+00  0.0000000000000000e+00
1.6666666666666663e-02  1.0000000000000000e+00  0.0000000000000000e+00
-3.4694469519536142e-18  1.0000000000000000e+00  0.0000000000000000e+00
5.0000000000000003e-02  1.0000000000000000e+00  0.0000000000000000e+00
5.0000000000000003e-02  9.7222222222222221e-01  0.0000000000000000e+00
3.3333333333333333e-02  1.0000000000000000e+00  0.0000000000000000e+00

CELLS 0 0


CELL_TYPES 0


POINT_DATA 79

VECTORS VertexNormals float

0.0000000000000000e+00 0.0000000000000000e+00 0
0.0000000000000000e+00 0.0000000000000000e+00 0
0.0000000000000000e+00 0.0000000000000000e+00 0
0.0000000000000000e+00 0.0000000000000000e+00 0
0.0000000000000000e+00 0.0000000000000000e+00 0
0.0000000000000000e+00 0.0000000000000000e+00 0
0.0000000000000000e+00 0.0000000000000000e+00 0
0.0000000000000000e+00 0.0000000000000000e+00 0
0.0000000000000000e+00 0.0000000000000000e+00 0
0.0000000000000000e+00 0.0000000000000000e+00 0
0.0000000000000000e+00 0.0000000000000000e+00 0
0.0000000000000000e+00 0.0000000000000000e+00 0
0.0000000000000000e+00 0.0000000000000000e+00 0
0.0000000000000000e+00 0.0000000000000000e+00 0
0.0000000000000000e+00 0.0000000000000000e+00 0
0.0000000000000000e+00 0.0000000000000000e+00 0
0.0000000000000000e+00 0.0000000000000000e+00 0
0.0000000000000000e+00 0.0000000000000000e+00 0
0.0000000000000000e+00 0.0000000000000000e+00 0
0.0000000000000000e+00 0.0000000000000000e+00 0
0.0000000000000000e+00 0.0000000000000000e+00 0
0.0000000000000000e+00 0.0000000000000000e+00 0
0.0000000000000000e+00 0.0000000000000000e+00 0
0.0000000000000000e+00 0.0000000000000000e+00 0
0.0000000000000000e+00 0.0000000000000000e+00 0
0.0000000000000000e+00 0.0000000000000000e+00 0
0.0000000000000000e+00 0.0000000000000000e+00 0
0.0000000000000000e+00 0.0000000000000000e+00 0
0.0000000000000000e+00 0.0000000000000000e+00 0
0.0000000000000000e+00 0.0000000000000000e+00 0
0.0000000000000000e+00 0.0000000000000000e+00 0
0.0000000000000000e+00 0.0000000000000000e+00 0
0.0000000000000000e+00 0.0000000000000000e+00 0
0.0000000000000000e+00 0.0000000000000000e+00 0
0.0000000000000000e+00 0.0000000000000000e+00 0
0.0000000000000000e+00 0.0000000000000000e+00 0
0.0000000000000000e+00 0.0000000000000000e+00 0
0.0000000000000000e+00 0.0000000000000000e+00 0
0.0000000000000000e+00 0.0000000000000000e+00 0
0.0000000000000000e+00 0.0000000000000000e+00 0
0.0000000000000000e+00 0.0000000000000000e+00 0
0.0000000000000000e+00 0.0000000000000000e+00 0
0.0000000000000000e+00 0.0000000000000000e+00 0
0.0000000000000000e+00 0.0000000000000000e+00 0
0.0000000000000000e+00 0.0000000000000000e+00 0
0.0000000000000000e+00 0.0000000000000000e+00 0
0.0000000000000000e+00 0.0000000000000000e+00 0
0.0000000000000000e+00 0.0000000000000000e+00 0
0.0000000000000000e+00 0.0000000000000000e+00 0
0.0000000000000000e+00 0.0000000000000000e+00 0
0.0000000000000000e+00 0.0000000000000000e+00 0
0.0000000000000000e+00 0.0000000000000000e+00 0
0.0000000000000000e+00 0.0000000000000000e+00 0
0.0000000000000000e+00 0.0000000000000000e+00 0
0.0000000000000000e+00 0.0000000000000000e+00 0
0.0000000000000000e+00 0.0000000000000000e+00 0
0.0000000000000000e+00 0.0000000000000000e+00 0
0.0000000000000000e+00 0.0000000000000000e+00 0
0.0000000000000000e+00 0.0000000000000000e+00 0
0.0000000000000000e+00 0.0000000000000000e+00 0
0.0000000000000000e+00 0.0000000000000000e+00 0
0.0000000000000000e+00 0.0000000000000000e+00 0
0.0000000000000000e+00 0.0000000000000000e+00 0
0.0000000000000000e+00 0.0000000000000000e+00 0
0.0000000000000000e+00 0.0000000000000000e+00 0
0.0000000000000000e+00 0.0000000000000000e+00 0
0.0000000000000000e+00 0.0000000000000000e+00 0
0.0000000000000000e+00 0.0000000000000000e+00 0
0.0000000000000000e+00 0.0000000000000000e+00 0
0.0000000000000000e+00 0.0000000000000000e+00 0
0.0000000000000000e+00 0.0000000000000000e+00 0
0.0000000000000000e+00 0.0000000000000000e+00 0
0.0000000000000000e+00 0.0000000000000000e+00 0
0.0000000000000000e+00 0.0000000000000000e+00 0
0.0000000000000000e+00 0.0000000000000000e+00 0
0.0000000000000000e+00 0.0000000000000000e+00 0
0.0000000000000000e+00 0.0000000000000000e+00 0
0.0000000000000000e+00 0.0000000000000000e+00 0
0.0000000000000000e+00 0.0000000000000000e+00 0

VECTORS Displacement float
0.0000000000000000e+00 0.0000000000000000e+00 0
1.1715293683804222e-03 1.3175945568546365e-03 0
5.3482561677711577e-04 7.0140531645888394e-04 0
0.0000000000000000e+00 0.0000000000000000e+00 0
1.2081437626366945e-03 -1.2147839241379731e-03 0
5.0489924361662205e-04 -6.5423108005707871e-04 0
3.4204313634597140e-03 2.3607778396926636e-03 0
2.1641433257484424e-03 1.8892500909468901e-03 0
3.4150204513699054e-03 -2.0708461017057548e-03 0
2.2105714780938719e-03 -1.6822999310512636e-03 0
6.4095057180973969e-03 2.9728364062296033e-03 0
4.8478194766137031e-03 2.7041197756085739e-03 0
6.5287239246398180e-03 -2.5852634689348007e-03 0
4.8780057184585127e-03 -2.3744535033080223e-03 0
9.8796712632407916e-03 3.2719116023004246e-03 0
8.1104775487670054e-03 3.1640111007171130e-03 0
9.9699473585660413e-03 -2.7920532430754453e-03 0
8.2359681460377285e-03 -2.7107064732945856e-03 0
1.3462385994612445e-02 3.2321059715290971e-03 0
1.1688071977190994e-02 3.2905940674922713e-03 0
1.3533375099408551e-02 -2.7115801583213438e-03 0
1.1762955905787617e-02 -2.7996110843164024e-03 0
1.6740626837122720e-02 3.0446089383082053e-03 0
1.5133623619474099e-02 3.1375618237913733e-03 0
1.6799801245679844e-02 -2.4149366704768228e-03 0
1.5198878587428083e-02 -2.5685839063265166e-03 0
1.9770197454410568e-02 2.7174943077505906e-03 0
1.8313319791483471e-02 2.9143651105628934e-03 0
1.9818370600119664e-02 -1.9411619872589912e-03 0
1.8367279115851277e-02 -2.2146526596954585e-03 0
2.2066927876669688e-02 2.2410938274636141e-03 0
2.1020305855726715e-02 2.4728043061628055e-03 0
2.2106291177498915e-02 -1.2989322341168000e-03 0
2.1063342031098792e-02 -1.6154837291379679e-03 0
2.3805388627771713e-02 1.8236312124097741e-03 0
2.2984881484554350e-02 2.0419855251474538e-03 0
2.3842447490850748e-02 -6.9969670788744341e-04 0
2.3022729012386882e-02 -1.0109529506582768e-03 0
2.4874835540839444e-02 1.2160240386215201e-03 0
2.4465161434608907e-02 1.5366063283132280e-03 0
2.4907949595583352e-02 1.0186940014794509e-04 0
2.4500931156593183e-02 -3.1636436030583180e-04 0
2.4964413490692790e-02 7.0232417726779673e-04 0
2.5019508965668791e-02 9.2454267909741457e-04 0
2.4993678803854953e-02 8.0544413294013470e-04 0
2.5049917900546979e-02 4.8965922719221777e-04 0
2.4618453535503154e-02 4.3182045716176658e-04 0
2.4813762544165965e-02 5.5975408528891144e-04 0
2.4655290682843469e-02 1.2610487143220204e-03 0
2.4845348841347824e-02 1.0395375139832567e-03 0
2.3891801842838595e-02 9.8903540412044675e-05 0
2.4331471638574000e-02 2.7021023998878433e-04 0
2.3928918371750794e-02 1.7977066733196570e-03 0
2.4372038216679884e-02 1.5233403599338822e-03 0
2.2605333257473083e-02 -1.4674598845519079e-04 0
2.3305511939230347e-02 -4.5277163686758328e-05 0
2.2634024908713187e-02 2.1918850303865186e-03 0
2.3335983843245353e-02 2.0306752096974903e-03 0
2.1037597368907333e-02 -8.2643108982762676e-05 0
2.1824849090964354e-02 -1.6879238729027311e-04 0
2.1095364449386041e-02 2.2155398799865683e-03 0
2.1864414253123413e-02 2.2504510770686649e-03 0
1.9857876697437209e-02 3.7092674068495710e-04 0
2.0363531637109269e-02 1.2656735675889473e-04 0
1.9877627600844393e-02 1.9779322598392989e-03 0
2.0417821603921152e-02 2.1088640498130805e-03 0
1.9231907742304176e-02 7.1850770518828912e-04 0
1.9490726347392694e-02 5.7265579317736085e-04 0
1.9260545026150287e-02 1.6573777378804050e-03 0
1.9482340641980199e-02 1.8152790100420453e-03 0
1.8820358568116931e-02 8.2730439020092393e-04 0
1.8852064259637515e-02 1.0525647521885885e-03 0
1.9016711872554173e-02 7.9741119655790996e-04 0
1.8828748557599299e-02 9.3541537790021144e-04 0
1.8914237161438228e-02 1.3243059323474705e-03 0
1.8886742043360508e-02 1.1861249698204338e-03 0
1.8925683506155019e-02 1.5903583969829928e-03 0
1.9120637463785117e-02 1.5914308854921813e-03 0
1.8924993507879503e-02 1.4550514254770310e-03 0

VECTORS Stress float
1.3179155406292782e+02 -4.4839555303632693e+01 0
1.0857876726454187e+02 4.1302595367766415e+00 0
1.1421229028885557e+02 -7.0650501390368357e+00 0
1.1747248221234602e+02 -4.3986073834224499e+01 0
9.2287330894445333e+01 4.3850889640046233e+00 0
9.8309402931588892e+01 -6.8057653008821015e+00 0
1.1240053366027328e+02 -6.2556292087743692e+00 0
1.1020721355619754e+02 -4.8195760238804475e-01 0
9.6433516948277287e+01 -5.5833665911766737e+00 0
9.4015527068562889e+01 2.6396005621199592e-02 0
1.1154456253279224e+02 -6.4456674418668811e+00 0
1.1216319564055107e+02 -6.8477941681033201e+00 0
9.6272743021606999e+01 -5.7869135881353309e+00 0
9.6552723253916298e+01 -6.1737794298461246e+00 0
1.1076592368402773e+02 -6.9744072501224288e+00 0
1.1105349734098915e+02 -6.6019057681474678e+00 0
9.7007873479212250e+01 -6.0685810127658542e+00 0
9.6528952282895759e+01 -5.8197154498630184e+00 0
1.0984929213903354e+02 -6.7288893385995721e+00 0
1.1035780663321111e+02 -7.0123613695085822e+00 0
9.8326423689778608e+01 -5.9194925736564521e+00 0
9.7628827655461066e+01 -6.1019969987718170e+00 0
1.0864612632294502e+02 -6.1498657821386260e+00 0
1.0933027372650415e+02 -6.4209179174654025e+00 0
1.0010427608457898e+02 -5.5527193637077019e+00 0
9.9113085552460689e+01 -5.7317318150796552e+00 0
1.0724009629266888e+02 -5.1448976256256813e+00 0
1.0800463868578355e+02 -5.7939099682624722e+00 0
1.0248194409835924e+02 -4.7712699730136023e+00 0
1.0116907502867004e+02 -5.3020806627628581e+00 0
1.0557383627276312e+02 -3.6930144593463297e+00 0
1.0645077851489671e+02 -4.3548159136306026e+00 0
1.0542511035645924e+02 -3.5719999465645884e+00 0
1.0390198998283464e+02 -4.1150053425842898e+00 0
1.0348550166583185e+02 -2.6242354544983044e+00 0
1.0454595724278043e+02 -3.2043886115731794e+00 0
1.0874830824744645e+02 -2.6631485985609018e+00 0
1.0707175124974087e+02 -3.1706798280078345e+00 0
1.0101294693877455e+02 -8.5101564510549110e-01 0
1.0229424898649984e+02 -1.7835910966675854e+00 0
1.1241506276972476e+02 -8.7948441783085229e-01 0
1.1059703305506360e+02 -1.8251299006958703e+00 0
9.7916363963355337e+01 3.9009659645111583e-01 0
9.9568205491280196e+01 -1.2744566803176838e-01 0
1.1582520465094692e+02 4.6322104148633514e-01 0
1.1418073880556653e+02 -1.1514237066773347e-01 0
9.3919057920712959e+01 1.0653514049216781e+00 0
9.6045981598599141e+01 7.9652139742630368e-01 0
1.1853687888108226e+02 1.3163106584371036e+00 0
1.1727791458517423e+02 9.4230406622345697e-01 0
8.8777106424384357e+01 1.8418680752151744e+00 0
9.1482989497554655e+01 1.4184599698529041e+00 0
1.2022439920835293e+02 2.3871693258896656e+00 0
1.1951603698812866e+02 1.7916531402808360e+00 0
8.2013735891189881e+01 2.1457108272819667e+00 0
8.5645761738398548e+01 2.2707879800842647e+00 0
1.2081214467369266e+02 3.1605563481897150e+00 0
1.2061165795620279e+02 3.0250077133624131e+00 0
7.2294924610931503e+01 2.1525926700396028e+00 0
7.7705971004120642e+01 1.5688858839111148e+00 0
1.1946448595091016e+02 3.3074242004713028e+00 0
1.2068847350379738e+02 2.8324158186949191e+00 0
5.7212133355548779e+01 4.9968086620465897e+00 0
6.5453255760190586e+01 5.2602541748824052e+00 0
1.1459052418493852e+02 4.8690618494970792e+00 0
1.1647967126195468e+02 5.3791355838401174e+00 0
3.4020064414270486e+01 -2.9329424458377900e+01 0
4.7708798001978849e+01 -1.4282580440165574e+01 0
1.2762544050503433e+02 -2.0034640141304976e+01 0
1.2209306847622146e+02 -9.5084214296185365e+00 0
-1.2137545741087280e+01 1.6793962906634823e+02 0
8.0376153458528421e-01 1.7323371698578339e+02 0
1.4634707631085575e+01 2.2196008748030252e+01 0
-9.5990777588410481e-01 1.7992901445003449e+02 0
-3.3902031180440915e+00 1.4295315972901773e+02 0
-1.1575272399047307e+00 1.5931056348160160e+02 0
1.5297944796198657e+01 1.1678588681403104e+02 0
9.7132727359391112e+01 1.4820229144740352e+01 0
-1.0361884044632319e+00 1.2781107634098174e+02 0

