# vtk DataFile Version 2.0

ASCII

DATASET UNSTRUCTURED_GRID

POINTS 79 float 

-5.0000000000000003e-02  0.0000000000000000e+00  0.0000000000000000e+00
-5.0000000000000003e-02  5.5555555555555552e-02  0.0000000000000000e+00
-5.0000000000000003e-02  2.7777777777777776e-02  0.0000000000000000e+00
5.0000000000000003e-02  0.0000000000000000e+00  0.0000000000000000e+00
5.0000000000000003e-02  5.5555555555555552e-02  0.0000000000000000e+00
5.0000000000000003e-02  2.7777777777777776e-02  0.0000000000000000e+00
-5.0000000000000003e-02  1.1111111111111110e-01  0.0000000000000000e+00
-5.0000000000000003e-02  8.3333333333333329e-02  0.0000000000000000e+00
5.0000000000000003e-02  1.1111111111111110e-01  0.0000000000000000e+00
5.0000000000000003e-02  8.3333333333333329e-02  0.0000000000000000e+00
-5.0000000000000003e-02  1.6666666666666666e-01  0.0000000000000000e+00
-5.0000000000000003e-02  1.3888888888888890e-01  0.0000000000000000e+00
5.0000000000000003e-02  1.6666666666666666e-01  0.0000000000000000e+00
5.0000000000000003e-02  1.3888888888888890e-01  0.0000000000000000e+00
-5.0000000000000003e-02  2.2222222222222221e-01  0.0000000000000000e+00
-5.0000000000000003e-02  1.9444444444444442e-01  0.0000000000000000e+00
5.0000000000000003e-02  2.2222222222222221e-01  0.0000000000000000e+00
5.0000000000000003e-02  1.9444444444444442e-01  0.0000000000000000e+00
-5.0000000000000003e-02  2.7777777777777779e-01  0.0000000000000000e+00
-5.0000000000000003e-02  2.5000000000000000e-01  0.0000000000000000e+00
5.0000000000000003e-02  2.7777777777777779e-01  0.0000000000000000e+00
5.0000000000000003e-02  2.5000000000000000e-01  0.0000000000000000e+00
-5.0000000000000003e-02  3.3333333333333331e-01  0.0000000000000000e+00
-5.0000000000000003e-02  3.0555555555555558e-01  0.0000000000000000e+00
5.0000000000000003e-02  3.3333333333333331e-01  0.0000000000000000e+00
5.0000000000000003e-02  3.0555555555555558e-01  0.0000000000000000e+00
-5.0000000000000003e-02  3.8888888888888884e-01  0.0000000000000000e+00
-5.0000000000000003e-02  3.6111111111111105e-01  0.0000000000000000e+00
5.0000000000000003e-02  3.8888888888888884e-01  0.0000000000000000e+00
5.0000000000000003e-02  3.6111111111111105e-01  0.0000000000000000e+00
-5.0000000000000003e-02  4.4444444444444442e-01  0.0000000000000000e+00
-5.0000000000000003e-02  4.1666666666666663e-01  0.0000000000000000e+00
5.0000000000000003e-02  4.4444444444444442e-01  0.0000000000000000e+00
5.0000000000000003e-02  4.1666666666666663e-01  0.0000000000000000e+00
-5.0000000000000003e-02  5.0000000000000000e-01  0.0000000000000000e+00
-5.0000000000000003e-02  4.7222222222222221e-01  0.0000000000000000e+00
5.0000000000000003e-02  5.0000000000000000e-01  0.0000000000000000e+00
5.0000000000000003e-02  4.7222222222222221e-01  0.0000000000000000e+00
-5.0000000000000003e-02  5.5555555555555558e-01  0.0000000000000000e+00
-5.0000000000000003e-02  5.2777777777777779e-01  0.0000000000000000e+00
5.0000000000000003e-02  5.5555555555555558e-01  0.0000000000000000e+00
5.0000000000000003e-02  5.2777777777777779e-01  0.0000000000000000e+00
-5.0000000000000003e-02  6.1111111111111105e-01  0.0000000000000000e+00
-5.0000000000000003e-02  5.8333333333333326e-01  0.0000000000000000e+00
5.0000000000000003e-02  6.1111111111111105e-01  0.0000000000000000e+00
5.0000000000000003e-02  5.8333333333333326e-01  0.0000000000000000e+00
-5.0000000000000003e-02  6.6666666666666663e-01  0.0000000000000000e+00
-5.0000000000000003e-02  6.3888888888888884e-01  0.0000000000000000e+00
5.0000000000000003e-02  6.6666666666666663e-01  0.0000000000000000e+00
5.0000000000000003e-02  6.3888888888888884e-01  0.0000000000000000e+00
-5.0000000000000003e-02  7.2222222222222221e-01  0.0000000000000000e+00
-5.0000000000000003e-02  6.9444444444444442e-01  0.0000000000000000e+00
5.0000000000000003e-02  7.2222222222222221e-01  0.0000000000000000e+00
5.0000000000000003e-02  6.9444444444444442e-01  0.0000000000000000e+00
-5.0000000000000003e-02  7.7777777777777768e-01  0.0000000000000000e+00
-5.0000000000000003e-02  7.5000000000000000e-01  0.0000000000000000e+00
5.0000000000000003e-02  7.7777777777777768e-01  0.0000000000000000e+00
5.0000000000000003e-02  7.5000000000000000e-01  0.0000000000000000e+00
-5.0000000000000003e-02  8.3333333333333326e-01  0.0000000000000000e+00
-5.0000000000000003e-02  8.0555555555555547e-01  0.0000000000000000e+00
5.0000000000000003e-02  8.3333333333333326e-01  0.0000000000000000e+00
5.0000000000000003e-02  8.0555555555555547e-01  0.0000000000000000e+00
-5.0000000000000003e-02  8.8888888888888884e-01  0.0000000000000000e+00
-5.0000000000000003e-02  8.6111111111111105e-01  0.0000000000000000e+00
5.0000000000000003e-02  8.8888888888888884e-01  0.0000000000000000e+00
5.0000000000000003e-02  8.6111111111111105e-01  0.0000000000000000e+00
-5.0000000000000003e-02  9.4444444444444442e-01  0.0000000000000000e+00
-5.0000000000000003e-02  9.1666666666666663e-01  0.0000000000000000e+00
5.0000000000000003e-02  9.4444444444444442e-01  0.0000000000000000e+00
5.0000000000000003e-02  9.1666666666666663e-01  0.0000000000000000e+00
-5.0000000000000003e-02  1.0000000000000000e+00  0.0000000000000000e+00
-1.6666666666666670e-02  1.0000000000000000e+00  0.0000000000000000e+00
-5.0000000000000003e-02  9.7222222222222221e-01  0.0000000000000000e+00
-3.3333333333333340e-02  1.0000000000000000e+00  0.0000000000000000e+00
1.6666666666666663e-02  1.0000000000000000e+00  0.0000000000000000e+00
-3.4694469519536142e-18  1.0000000000000000e+00  0.0000000000000000e+00
5.0000000000000003e-02  1.0000000000000000e+00  0.0000000000000000e+00
5.0000000000000003e-02  9.7222222222222221e-01  0.0000000000000000e+00
3.3333333333333333e-02  1.0000000000000000e+00  0.0000000000000000e+00

CELLS 0 0


CELL_TYPES 0


POINT_DATA 79

VECTORS VertexNormals float

0.0000000000000000e+00 0.0000000000000000e+00 0
0.0000000000000000e+00 0.0000000000000000e+00 0
0.0000000000000000e+00 0.0000000000000000e+00 0
0.0000000000000000e+00 0.0000000000000000e+00 0
0.0000000000000000e+00 0.0000000000000000e+00 0
0.0000000000000000e+00 0.0000000000000000e+00 0
0.0000000000000000e+00 0.0000000000000000e+00 0
0.0000000000000000e+00 0.0000000000000000e+00 0
0.0000000000000000e+00 0.0000000000000000e+00 0
0.0000000000000000e+00 0.0000000000000000e+00 0
0.0000000000000000e+00 0.0000000000000000e+00 0
0.0000000000000000e+00 0.0000000000000000e+00 0
0.0000000000000000e+00 0.0000000000000000e+00 0
0.0000000000000000e+00 0.0000000000000000e+00 0
0.0000000000000000e+00 0.0000000000000000e+00 0
0.0000000000000000e+00 0.0000000000000000e+00 0
0.0000000000000000e+00 0.0000000000000000e+00 0
0.0000000000000000e+00 0.0000000000000000e+00 0
0.0000000000000000e+00 0.0000000000000000e+00 0
0.0000000000000000e+00 0.0000000000000000e+00 0
0.0000000000000000e+00 0.0000000000000000e+00 0
0.0000000000000000e+00 0.0000000000000000e+00 0
0.0000000000000000e+00 0.0000000000000000e+00 0
0.0000000000000000e+00 0.0000000000000000e+00 0
0.0000000000000000e+00 0.0000000000000000e+00 0
0.0000000000000000e+00 0.0000000000000000e+00 0
0.0000000000000000e+00 0.0000000000000000e+00 0
0.0000000000000000e+00 0.0000000000000000e+00 0
0.0000000000000000e+00 0.0000000000000000e+00 0
0.0000000000000000e+00 0.0000000000000000e+00 0
0.0000000000000000e+00 0.0000000000000000e+00 0
0.0000000000000000e+00 0.0000000000000000e+00 0
0.0000000000000000e+00 0.0000000000000000e+00 0
0.0000000000000000e+00 0.0000000000000000e+00 0
0.0000000000000000e+00 0.0000000000000000e+00 0
0.0000000000000000e+00 0.0000000000000000e+00 0
0.0000000000000000e+00 0.0000000000000000e+00 0
0.0000000000000000e+00 0.0000000000000000e+00 0
0.0000000000000000e+00 0.0000000000000000e+00 0
0.0000000000000000e+00 0.0000000000000000e+00 0
0.0000000000000000e+00 0.0000000000000000e+00 0
0.0000000000000000e+00 0.0000000000000000e+00 0
0.0000000000000000e+00 0.0000000000000000e+00 0
0.0000000000000000e+00 0.0000000000000000e+00 0
0.0000000000000000e+00 0.0000000000000000e+00 0
0.0000000000000000e+00 0.0000000000000000e+00 0
0.0000000000000000e+00 0.0000000000000000e+00 0
0.0000000000000000e+00 0.0000000000000000e+00 0
0.0000000000000000e+00 0.0000000000000000e+00 0
0.0000000000000000e+00 0.0000000000000000e+00 0
0.0000000000000000e+00 0.0000000000000000e+00 0
0.0000000000000000e+00 0.0000000000000000e+00 0
0.0000000000000000e+00 0.0000000000000000e+00 0
0.0000000000000000e+00 0.0000000000000000e+00 0
0.0000000000000000e+00 0.0000000000000000e+00 0
0.0000000000000000e+00 0.0000000000000000e+00 0
0.0000000000000000e+00 0.0000000000000000e+00 0
0.0000000000000000e+00 0.0000000000000000e+00 0
0.0000000000000000e+00 0.0000000000000000e+00 0
0.0000000000000000e+00 0.0000000000000000e+00 0
0.0000000000000000e+00 0.0000000000000000e+00 0
0.0000000000000000e+00 0.0000000000000000e+00 0
0.0000000000000000e+00 0.0000000000000000e+00 0
0.0000000000000000e+00 0.0000000000000000e+00 0
0.0000000000000000e+00 0.0000000000000000e+00 0
0.0000000000000000e+00 0.0000000000000000e+00 0
0.0000000000000000e+00 0.0000000000000000e+00 0
0.0000000000000000e+00 0.0000000000000000e+00 0
0.0000000000000000e+00 0.0000000000000000e+00 0
0.0000000000000000e+00 0.0000000000000000e+00 0
0.0000000000000000e+00 0.0000000000000000e+00 0
0.0000000000000000e+00 0.0000000000000000e+00 0
0.0000000000000000e+00 0.0000000000000000e+00 0
0.0000000000000000e+00 0.0000000000000000e+00 0
0.0000000000000000e+00 0.0000000000000000e+00 0
0.0000000000000000e+00 0.0000000000000000e+00 0
0.0000000000000000e+00 0.0000000000000000e+00 0
0.0000000000000000e+00 0.0000000000000000e+00 0
0.0000000000000000e+00 0.0000000000000000e+00 0

VECTORS Displacement float
0.0000000000000000e+00 0.0000000000000000e+00 0
1.6236004083580876e-03 2.0946882242655713e-03 0
6.1986157487768179e-04 1.0609272792910123e-03 0
0.0000000000000000e+00 0.0000000000000000e+00 0
1.6941116853048121e-03 -2.3537878112555926e-03 0
7.2833545321080687e-04 -1.2165006031024323e-03 0
5.4566954845413178e-03 3.9484876565724046e-03 0
3.2641586877635133e-03 3.0554191247011415e-03 0
5.4690475487676696e-03 -4.4621686046055495e-03 0
3.2721397263872545e-03 -3.4429661300913704e-03 0
1.1196801043417678e-02 5.5766994132011504e-03 0
8.1104049784532558e-03 4.7824658728969453e-03 0
1.1177967280294739e-02 -6.2816136614526515e-03 0
8.1402497729392946e-03 -5.3890576417803294e-03 0
1.8810001039454037e-02 7.0495518504459734e-03 0
1.4779423894546728e-02 6.3289944829976637e-03 0
1.8751213240052356e-02 -8.0617875092746406e-03 0
1.4700976299977478e-02 -7.1907420413726327e-03 0
2.8126422416373080e-02 8.5333876477796215e-03 0
2.3231513633642075e-02 7.7934909815966244e-03 0
2.8145398055642722e-02 -9.6041553327546932e-03 0
2.3244886913999233e-02 -8.8680890294944477e-03 0
3.9002416682008337e-02 9.7923569810495423e-03 0
3.3427464784505950e-02 9.1861068473422409e-03 0
3.8900768801839694e-02 -1.0953209818673877e-02 0
3.3378196337800939e-02 -1.0270711709752163e-02 0
5.1187797527957137e-02 1.1040699088923904e-02 0
4.4921579377841442e-02 1.0400574003931774e-02 0
5.1108806412164157e-02 -1.2418108558460570e-02 0
4.4818059802185721e-02 -1.1672873458340498e-02 0
6.5169584660568436e-02 1.2379471151005414e-02 0
5.7914361788788477e-02 1.1732735220458401e-02 0
6.5083345691527655e-02 -1.3903200676417354e-02 0
5.7843571157969183e-02 -1.3191403378097748e-02 0
8.0648126191171760e-02 1.3363372917833908e-02 0
7.2784832575114700e-02 1.2906868362497522e-02 0
8.0579211437130024e-02 -1.4951190152858344e-02 0
7.2696428122475065e-02 -1.4479452115194833e-02 0
9.7103443819883090e-02 1.4093452612026693e-02 0
8.8754042400803770e-02 1.3763536162769173e-02 0
9.7015935833818595e-02 -1.5687451781743779e-02 0
8.8694027516949034e-02 -1.5342997340524325e-02 0
1.1421968565202820e-01 1.4458949453142090e-02 0
1.0562332365689173e-01 1.4319039786020914e-02 0
1.1411403974384815e-01 -1.6185307833059874e-02 0
1.0551102600521262e-01 -1.5969946237507301e-02 0
1.3149862488479097e-01 1.4606854669255369e-02 0
1.2284517040218779e-01 1.4539389025063562e-02 0
1.3140082246980483e-01 -1.6448893940756611e-02 0
1.2274870858575265e-01 -1.6336130536066393e-02 0
1.4887516877900742e-01 1.4749511414973238e-02 0
1.4017379627364845e-01 1.4674856269728202e-02 0
1.4879917901346540e-01 -1.6561952959346475e-02 0
1.4009020162513564e-01 -1.6520150467647467e-02 0
1.6633828147270377e-01 1.4866003240589214e-02 0
1.5760982443278049e-01 1.4815119221683905e-02 0
1.6627711739635445e-01 -1.6654006320688447e-02 0
1.5752765516101452e-01 -1.6606462009661593e-02 0
1.8398891770402931e-01 1.4965894796114130e-02 0
1.7512242043581144e-01 1.4927374523006798e-02 0
1.8385130164240385e-01 -1.6732415648236153e-02 0
1.7504625474174168e-01 -1.6690038023200328e-02 0
2.0171138928269189e-01 1.4899547324881555e-02 0
1.9287659197350993e-01 1.4948616359127033e-02 0
2.0163397562100788e-01 -1.6749846264705784e-02 0
1.9272153137222234e-01 -1.6768058435142067e-02 0
2.1922480760187985e-01 1.4789808112466021e-02 0
2.1048229582631031e-01 1.4844212411161869e-02 0
2.1921162280510037e-01 -1.6543930962223025e-02 0
2.1048067035353690e-01 -1.6661218904812702e-02 0
2.3657769838874473e-01 1.4720632372723853e-02 0
2.3654960932038988e-01 4.3589174272843454e-03 0
2.2792568378970002e-01 1.4737135274050413e-02 0
2.3656859394116536e-01 9.5403441560260056e-03 0
2.3652151988647657e-01 -6.0697458003598579e-03 0
2.3653351099226783e-01 -8.4979718478892267e-04 0
2.3650408754467783e-01 -1.6455964641037827e-02 0
2.2786325089135939e-01 -1.6475412098873495e-02 0
2.3650988870822909e-01 -1.1270125974727626e-02 0

VECTORS Stress float
1.5044318672819060e+02 -1.9600528735168631e+01 0
1.4483948697281110e+02 -3.9110787401286560e+00 0
1.4625281613449812e+02 -6.1241494615860841e+00 0
-1.2419476410852617e+01 -1.2365281012848868e+01 0
-1.9277028928870855e+01 3.2718517482755223e+00 0
-1.7628883675593684e+01 -7.7992875235913361e-01 0
1.4569302554309218e+02 -1.2693936491840836e+01 0
1.4519701727302197e+02 -8.1570667095562825e+00 0
-1.8279665821769772e+01 1.3756454418909243e+00 0
-1.8882826606986125e+01 2.5805099023797351e+00 0
1.4524757578813725e+02 -1.6941811777992708e+01 0
1.4553389950734470e+02 -1.5055710225849495e+01 0
-1.8253830520306423e+01 2.2667816432750341e+00 0
-1.8207488533715196e+01 1.7105739707036256e+00 0
1.4421427221052741e+02 -2.1297039750598845e+01 0
1.4475161597661688e+02 -1.9081598107281124e+01 0
-1.7748554769337261e+01 2.8901358945329001e+00 0
-1.8017283097754493e+01 2.6559996905719654e+00 0
1.4234280468528885e+02 -2.5266919538047411e+01 0
1.4339296834264627e+02 -2.3372976781053517e+01 0
-1.6877829708312582e+01 3.2070832850530619e+00 0
-1.7347893636377343e+01 3.0580844558853051e+00 0
1.3971347938062928e+02 -2.8223288723657987e+01 0
1.4116731721717460e+02 -2.6922087661761399e+01 0
-1.5697087617256134e+01 3.4191957949825422e+00 0
-1.6377801204348643e+01 3.3318139432618432e+00 0
1.3609758041687471e+02 -3.1117424293754450e+01 0
1.3812717217675348e+02 -2.9527494270183389e+01 0
-1.4253847312414358e+01 3.5396232236136420e+00 0
-1.5050441120101732e+01 3.4935680010984331e+00 0
1.3152529215765787e+02 -3.4162712390227824e+01 0
1.3386024022569939e+02 -3.2807932262982980e+01 0
-1.2523919602931336e+01 3.5183677842183059e+00 0
-1.3429212968627041e+01 3.5772030882920838e+00 0
1.2667273799354882e+02 -3.5688721312382249e+01 0
1.2910052015632658e+02 -3.5028228031849878e+01 0
-1.0374465851291141e+01 3.1722459240337448e+00 0
-1.1471101064303497e+01 3.3442458909180361e+00 0
1.2159102889183642e+02 -3.6314127274477507e+01 0
1.2413179551406319e+02 -3.6091418121513712e+01 0
-7.7898453047382432e+00 2.5237652942546571e+00 0
-9.1065095376001466e+00 2.8380815787613800e+00 0
1.1650811690273272e+02 -3.5707002300563168e+01 0
1.1906175264331867e+02 -3.6168022629597843e+01 0
-4.9567516515452752e+00 1.6860581019257843e+00 0
-6.3948186234898614e+00 2.1222319049140967e+00 0
1.1100925971259258e+02 -3.4321414610804268e+01 0
1.1385496618091211e+02 -3.5090518398515457e+01 0
-2.1167893555916635e+00 8.1912735409991910e-01 0
-3.5318720525375156e+00 1.2818114515877301e+00 0
1.0461997422260436e+02 -3.2435105689281436e+01 0
1.0795307014591396e+02 -3.3442072421006678e+01 0
5.3494083574443607e-01 2.3591711614452393e-02 0
-7.6649517107951937e-01 4.2966871532081363e-01 0
9.6972459562177903e+01 -3.0347000944471809e+01 0
1.0096963248849032e+02 -3.1342842568059268e+01 0
2.9587420248214258e+00 -7.8361356205264343e-01 0
1.7692947179223850e+00 -3.4668054097822676e-01 0
8.7632571477147835e+01 -2.7658419083217435e+01 0
9.2562967531784579e+01 -2.9350554878148159e+01 0
5.1001562155893012e+00 -1.4040839994532739e+00 0
4.1013651557412771e+00 -1.2592721202417803e+00 0
7.6171028698551481e+01 -2.2461717592671604e+01 0
8.2143388506291018e+01 -2.4560530752963381e+01 0
6.7079670304713161e+00 -1.3000383955207369e+00 0
5.8392650649710163e+00 -1.0586660912277370e+00 0
6.3341151753511937e+01 -3.0703414985703532e+01 0
7.0574493187725494e+01 -2.7492472739424663e+01 0
1.0091382322157010e+01 -7.3978445203955783e+00 0
8.5723173593251545e+00 -4.9357557699740973e+00 0
2.9050579896076130e+01 5.3948454696621084e+01 0
1.4176519679526294e+01 5.1269162084299197e+01 0
4.9591941551954726e+01 -6.8310519595838564e+00 0
1.8583783376710372e+01 5.9329446811154305e+01 0
1.0724936643231246e+01 2.9524435415912869e+01 0
1.2257896062309030e+01 3.9299850099076231e+01 0
-1.5660297977827540e+00 2.4549838519834871e+01 0
7.9182731897459178e+00 3.3789668395658268e-01 0
7.1806911083715192e+00 2.3519131732703094e+01 0

