# vtk DataFile Version 2.0

ASCII

DATASET UNSTRUCTURED_GRID

POINTS 79 float 

-5.0000000000000003e-02  0.0000000000000000e+00  0.0000000000000000e+00
-5.0000000000000003e-02  5.5555555555555552e-02  0.0000000000000000e+00
-5.0000000000000003e-02  2.7777777777777776e-02  0.0000000000000000e+00
5.0000000000000003e-02  0.0000000000000000e+00  0.0000000000000000e+00
5.0000000000000003e-02  5.5555555555555552e-02  0.0000000000000000e+00
5.0000000000000003e-02  2.7777777777777776e-02  0.0000000000000000e+00
-5.0000000000000003e-02  1.1111111111111110e-01  0.0000000000000000e+00
-5.0000000000000003e-02  8.3333333333333329e-02  0.0000000000000000e+00
5.0000000000000003e-02  1.1111111111111110e-01  0.0000000000000000e+00
5.0000000000000003e-02  8.3333333333333329e-02  0.0000000000000000e+00
-5.0000000000000003e-02  1.6666666666666666e-01  0.0000000000000000e+00
-5.0000000000000003e-02  1.3888888888888890e-01  0.0000000000000000e+00
5.0000000000000003e-02  1.6666666666666666e-01  0.0000000000000000e+00
5.0000000000000003e-02  1.3888888888888890e-01  0.0000000000000000e+00
-5.0000000000000003e-02  2.2222222222222221e-01  0.0000000000000000e+00
-5.0000000000000003e-02  1.9444444444444442e-01  0.0000000000000000e+00
5.0000000000000003e-02  2.2222222222222221e-01  0.0000000000000000e+00
5.0000000000000003e-02  1.9444444444444442e-01  0.0000000000000000e+00
-5.0000000000000003e-02  2.7777777777777779e-01  0.0000000000000000e+00
-5.0000000000000003e-02  2.5000000000000000e-01  0.0000000000000000e+00
5.0000000000000003e-02  2.7777777777777779e-01  0.0000000000000000e+00
5.0000000000000003e-02  2.5000000000000000e-01  0.0000000000000000e+00
-5.0000000000000003e-02  3.3333333333333331e-01  0.0000000000000000e+00
-5.0000000000000003e-02  3.0555555555555558e-01  0.0000000000000000e+00
5.0000000000000003e-02  3.3333333333333331e-01  0.0000000000000000e+00
5.0000000000000003e-02  3.0555555555555558e-01  0.0000000000000000e+00
-5.0000000000000003e-02  3.8888888888888884e-01  0.0000000000000000e+00
-5.0000000000000003e-02  3.6111111111111105e-01  0.0000000000000000e+00
5.0000000000000003e-02  3.8888888888888884e-01  0.0000000000000000e+00
5.0000000000000003e-02  3.6111111111111105e-01  0.0000000000000000e+00
-5.0000000000000003e-02  4.4444444444444442e-01  0.0000000000000000e+00
-5.0000000000000003e-02  4.1666666666666663e-01  0.0000000000000000e+00
5.0000000000000003e-02  4.4444444444444442e-01  0.0000000000000000e+00
5.0000000000000003e-02  4.1666666666666663e-01  0.0000000000000000e+00
-5.0000000000000003e-02  5.0000000000000000e-01  0.0000000000000000e+00
-5.0000000000000003e-02  4.7222222222222221e-01  0.0000000000000000e+00
5.0000000000000003e-02  5.0000000000000000e-01  0.0000000000000000e+00
5.0000000000000003e-02  4.7222222222222221e-01  0.0000000000000000e+00
-5.0000000000000003e-02  5.5555555555555558e-01  0.0000000000000000e+00
-5.0000000000000003e-02  5.2777777777777779e-01  0.0000000000000000e+00
5.0000000000000003e-02  5.5555555555555558e-01  0.0000000000000000e+00
5.0000000000000003e-02  5.2777777777777779e-01  0.0000000000000000e+00
-5.0000000000000003e-02  6.1111111111111105e-01  0.0000000000000000e+00
-5.0000000000000003e-02  5.8333333333333326e-01  0.0000000000000000e+00
5.0000000000000003e-02  6.1111111111111105e-01  0.0000000000000000e+00
5.0000000000000003e-02  5.8333333333333326e-01  0.0000000000000000e+00
-5.0000000000000003e-02  6.6666666666666663e-01  0.0000000000000000e+00
-5.0000000000000003e-02  6.3888888888888884e-01  0.0000000000000000e+00
5.0000000000000003e-02  6.6666666666666663e-01  0.0000000000000000e+00
5.0000000000000003e-02  6.3888888888888884e-01  0.0000000000000000e+00
-5.0000000000000003e-02  7.2222222222222221e-01  0.0000000000000000e+00
-5.0000000000000003e-02  6.9444444444444442e-01  0.0000000000000000e+00
5.0000000000000003e-02  7.2222222222222221e-01  0.0000000000000000e+00
5.0000000000000003e-02  6.9444444444444442e-01  0.0000000000000000e+00
-5.0000000000000003e-02  7.7777777777777768e-01  0.0000000000000000e+00
-5.0000000000000003e-02  7.5000000000000000e-01  0.0000000000000000e+00
5.0000000000000003e-02  7.7777777777777768e-01  0.0000000000000000e+00
5.0000000000000003e-02  7.5000000000000000e-01  0.0000000000000000e+00
-5.0000000000000003e-02  8.3333333333333326e-01  0.0000000000000000e+00
-5.0000000000000003e-02  8.0555555555555547e-01  0.0000000000000000e+00
5.0000000000000003e-02  8.3333333333333326e-01  0.0000000000000000e+00
5.0000000000000003e-02  8.0555555555555547e-01  0.0000000000000000e+00
-5.0000000000000003e-02  8.8888888888888884e-01  0.0000000000000000e+00
-5.0000000000000003e-02  8.6111111111111105e-01  0.0000000000000000e+00
5.0000000000000003e-02  8.8888888888888884e-01  0.0000000000000000e+00
5.0000000000000003e-02  8.6111111111111105e-01  0.0000000000000000e+00
-5.0000000000000003e-02  9.4444444444444442e-01  0.0000000000000000e+00
-5.0000000000000003e-02  9.1666666666666663e-01  0.0000000000000000e+00
5.0000000000000003e-02  9.4444444444444442e-01  0.0000000000000000e+00
5.0000000000000003e-02  9.1666666666666663e-01  0.0000000000000000e+00
-5.0000000000000003e-02  1.0000000000000000e+00  0.0000000000000000e+00
-1.6666666666666670e-02  1.0000000000000000e+00  0.0000000000000000e+00
-5.0000000000000003e-02  9.7222222222222221e-01  0.0000000000000000e+00
-3.3333333333333340e-02  1.0000000000000000e+00  0.0000000000000000e+00
1.6666666666666663e-02  1.0000000000000000e+00  0.0000000000000000e+00
-3.4694469519536142e-18  1.0000000000000000e+00  0.0000000000000000e+00
5.0000000000000003e-02  1.0000000000000000e+00  0.0000000000000000e+00
5.0000000000000003e-02  9.7222222222222221e-01  0.0000000000000000e+00
3.3333333333333333e-02  1.0000000000000000e+00  0.0000000000000000e+00

CELLS 0 0


CELL_TYPES 0


POINT_DATA 79

VECTORS VertexNormals float

0.0000000000000000e+00 0.0000000000000000e+00 0
0.0000000000000000e+00 0.0000000000000000e+00 0
0.0000000000000000e+00 0.0000000000000000e+00 0
0.0000000000000000e+00 0.0000000000000000e+00 0
0.0000000000000000e+00 0.0000000000000000e+00 0
0.0000000000000000e+00 0.0000000000000000e+00 0
0.0000000000000000e+00 0.0000000000000000e+00 0
0.0000000000000000e+00 0.0000000000000000e+00 0
0.0000000000000000e+00 0.0000000000000000e+00 0
0.0000000000000000e+00 0.0000000000000000e+00 0
0.0000000000000000e+00 0.0000000000000000e+00 0
0.0000000000000000e+00 0.0000000000000000e+00 0
0.0000000000000000e+00 0.0000000000000000e+00 0
0.0000000000000000e+00 0.0000000000000000e+00 0
0.0000000000000000e+00 0.0000000000000000e+00 0
0.0000000000000000e+00 0.0000000000000000e+00 0
0.0000000000000000e+00 0.0000000000000000e+00 0
0.0000000000000000e+00 0.0000000000000000e+00 0
0.0000000000000000e+00 0.0000000000000000e+00 0
0.0000000000000000e+00 0.0000000000000000e+00 0
0.0000000000000000e+00 0.0000000000000000e+00 0
0.0000000000000000e+00 0.0000000000000000e+00 0
0.0000000000000000e+00 0.0000000000000000e+00 0
0.0000000000000000e+00 0.0000000000000000e+00 0
0.0000000000000000e+00 0.0000000000000000e+00 0
0.0000000000000000e+00 0.0000000000000000e+00 0
0.0000000000000000e+00 0.0000000000000000e+00 0
0.0000000000000000e+00 0.0000000000000000e+00 0
0.0000000000000000e+00 0.0000000000000000e+00 0
0.0000000000000000e+00 0.0000000000000000e+00 0
0.0000000000000000e+00 0.0000000000000000e+00 0
0.0000000000000000e+00 0.0000000000000000e+00 0
0.0000000000000000e+00 0.0000000000000000e+00 0
0.0000000000000000e+00 0.0000000000000000e+00 0
0.0000000000000000e+00 0.0000000000000000e+00 0
0.0000000000000000e+00 0.0000000000000000e+00 0
0.0000000000000000e+00 0.0000000000000000e+00 0
0.0000000000000000e+00 0.0000000000000000e+00 0
0.0000000000000000e+00 0.0000000000000000e+00 0
0.0000000000000000e+00 0.0000000000000000e+00 0
0.0000000000000000e+00 0.0000000000000000e+00 0
0.0000000000000000e+00 0.0000000000000000e+00 0
0.0000000000000000e+00 0.0000000000000000e+00 0
0.0000000000000000e+00 0.0000000000000000e+00 0
0.0000000000000000e+00 0.0000000000000000e+00 0
0.0000000000000000e+00 0.0000000000000000e+00 0
0.0000000000000000e+00 0.0000000000000000e+00 0
0.0000000000000000e+00 0.0000000000000000e+00 0
0.0000000000000000e+00 0.0000000000000000e+00 0
0.0000000000000000e+00 0.0000000000000000e+00 0
0.0000000000000000e+00 0.0000000000000000e+00 0
0.0000000000000000e+00 0.0000000000000000e+00 0
0.0000000000000000e+00 0.0000000000000000e+00 0
0.0000000000000000e+00 0.0000000000000000e+00 0
0.0000000000000000e+00 0.0000000000000000e+00 0
0.0000000000000000e+00 0.0000000000000000e+00 0
0.0000000000000000e+00 0.0000000000000000e+00 0
0.0000000000000000e+00 0.0000000000000000e+00 0
0.0000000000000000e+00 0.0000000000000000e+00 0
0.0000000000000000e+00 0.0000000000000000e+00 0
0.0000000000000000e+00 0.0000000000000000e+00 0
0.0000000000000000e+00 0.0000000000000000e+00 0
0.0000000000000000e+00 0.0000000000000000e+00 0
0.0000000000000000e+00 0.0000000000000000e+00 0
0.0000000000000000e+00 0.0000000000000000e+00 0
0.0000000000000000e+00 0.0000000000000000e+00 0
0.0000000000000000e+00 0.0000000000000000e+00 0
0.0000000000000000e+00 0.0000000000000000e+00 0
0.0000000000000000e+00 0.0000000000000000e+00 0
0.0000000000000000e+00 0.0000000000000000e+00 0
0.0000000000000000e+00 0.0000000000000000e+00 0
0.0000000000000000e+00 0.0000000000000000e+00 0
0.0000000000000000e+00 0.0000000000000000e+00 0
0.0000000000000000e+00 0.0000000000000000e+00 0
0.0000000000000000e+00 0.0000000000000000e+00 0
0.0000000000000000e+00 0.0000000000000000e+00 0
0.0000000000000000e+00 0.0000000000000000e+00 0
0.0000000000000000e+00 0.0000000000000000e+00 0
0.0000000000000000e+00 0.0000000000000000e+00 0

VECTORS Displacement float
0.0000000000000000e+00 0.0000000000000000e+00 0
1.9297927038464278e-03 2.4088668945532934e-03 0
8.0472095960958535e-04 1.2561371806785028e-03 0
0.0000000000000000e+00 0.0000000000000000e+00 0
1.8761135451903206e-03 -2.4881471268257578e-03 0
7.6328753063586345e-04 -1.2772017967097205e-03 0
6.1971630405082273e-03 4.4689556766215905e-03 0
3.7429490764014578e-03 3.4898990024142327e-03 0
6.2225291092304607e-03 -4.6068079693742884e-03 0
3.7456047411805219e-03 -3.6183034006828018e-03 0
1.2465533253969579e-02 6.0295008224754837e-03 0
9.1587518910270227e-03 5.2991699059404974e-03 0
1.2418664321549108e-02 -6.1562888793134773e-03 0
9.1403503033035162e-03 -5.4323451246418098e-03 0
2.0118687965762265e-02 7.3872740536082317e-03 0
1.6115855948316889e-02 6.7112121411082425e-03 0
2.0138823671964019e-02 -7.3618310252930239e-03 0
1.6107906308796230e-02 -6.7863427490416524e-03 0
2.9256689715038746e-02 8.5379517595521280e-03 0
2.4499815530059546e-02 8.0173234525765368e-03 0
2.9168006790312326e-02 -8.4062250120773650e-03 0
2.4467165214458110e-02 -7.9070592464905963e-03 0
3.9353115474639551e-02 9.2186117882431268e-03 0
3.4217155127037012e-02 8.9210585656332199e-03 0
3.9345009957580071e-02 -9.0721937794945584e-03 0
3.4154405297770848e-02 -8.8031634095092105e-03 0
4.9965821248250650e-02 9.5800026508535696e-03 0
4.4644334723050010e-02 9.4294580190130046e-03 0
4.9882820574132243e-02 -9.2598080191416826e-03 0
4.4615226377614475e-02 -9.1972657728706490e-03 0
6.0568041251680194e-02 9.7148348973727754e-03 0
5.5277747442409791e-02 9.6687004565920026e-03 0
6.0565314201587811e-02 -9.2801752286372739e-03 0
5.5207272065638968e-02 -9.2903325430306570e-03 0
7.1272281034603896e-02 9.7789644803843289e-03 0
6.5895751490176985e-02 9.7574244615374547e-03 0
7.1151763166114365e-02 -9.1981058088034182e-03 0
6.5885353248646125e-02 -9.2375688430059548e-03 0
8.1805362172144902e-02 9.6724608480132212e-03 0
7.6594433103127746e-02 9.7422627419559774e-03 0
8.1769530212046554e-02 -9.0585727877671839e-03 0
7.6444718972946149e-02 -9.1603217208966817e-03 0
9.2062764363623484e-02 9.4910791242319402e-03 0
8.6946503400129937e-02 9.5958031241173379e-03 0
9.2039211826813738e-02 -8.6342091731233944e-03 0
8.6985890842330854e-02 -8.8608075503338497e-03 0
1.0189196952683180e-01 9.1226707205799857e-03 0
9.7079105081678094e-02 9.3158504490436327e-03 0
1.0179429953058500e-01 -8.2057652424087982e-03 0
9.6978624673694211e-02 -8.4120690735507951e-03 0
1.1111719594775851e-01 8.9309142262547700e-03 0
1.0653982557028246e-01 8.9900581445326484e-03 0
1.1109994052562905e-01 -7.9258865329972367e-03 0
1.0648975589776678e-01 -8.0386250738241315e-03 0
1.2037532089558359e-01 9.0564614330768626e-03 0
1.1571833275097795e-01 8.9580922731077525e-03 0
1.2030741052387786e-01 -7.9757203158346383e-03 0
1.1567112403591086e-01 -7.9106865735601786e-03 0
1.2997378884997435e-01 9.3486744188668314e-03 0
1.2512205868808454e-01 9.2006397577214863e-03 0
1.2997596161804453e-01 -8.1346491686333788e-03 0
1.2509654050737889e-01 -8.0662050809473564e-03 0
1.3991170545001241e-01 9.6181391041983266e-03 0
1.3489238827351230e-01 9.4907487726620231e-03 0
1.3981153242783093e-01 -8.3369586555049231e-03 0
1.3485769647883497e-01 -8.2163294681920108e-03 0
1.5004371124011373e-01 9.7795486539245212e-03 0
1.4497077082562571e-01 9.7099631371202946e-03 0
1.5003350867139978e-01 -8.4993906364350114e-03 0
1.4489383422500757e-01 -8.4417022711470273e-03 0
1.6037480893247030e-01 9.8867673733260466e-03 0
1.6029585930071966e-01 3.6941699308292138e-03 0
1.5518414855002938e-01 9.8450958572082921e-03 0
1.6034745057519323e-01 6.7751074883846806e-03 0
1.6022009376622354e-01 -2.4233154725937086e-03 0
1.6024938376039316e-01 6.2839755112014859e-04 0
1.6021791604769653e-01 -8.4921306035038516e-03 0
1.5514474344718099e-01 -8.5014914529103515e-03 0
1.6021440583585772e-01 -5.4583306953016365e-03 0

VECTORS Stress float
1.3191839002011886e+02 -2.7864993410839254e+01 0
1.2305616871932037e+02 -2.2598354738539781e+00 0
1.2523942593090770e+02 -6.9844349067692484e+00 0
3.4220905207256948e+01 -2.3464453023565000e+01 0
2.3948062316879362e+01 2.5918892505614304e+00 0
2.6450495427786080e+01 -3.4151802952725103e+00 0
1.2448168508373325e+02 -1.2159989131288102e+01 0
1.2366153211933945e+02 -6.9901814376512288e+00 0
2.5372775424932478e+01 -3.0329671135816962e+00 0
2.4514313514154626e+01 1.2065996998590345e-01 0
1.2401168182775957e+02 -1.5121675950192618e+01 0
1.2432627704695780e+02 -1.3985068736520649e+01 0
2.5214706092261391e+01 -3.2078248074862232e+00 0
2.5373579963397340e+01 -3.3725029423757995e+00 0
1.2322368570011351e+02 -1.8165386477237210e+01 0
1.2360255044820700e+02 -1.6571369697048631e+01 0
2.5623546516211817e+01 -3.8429128540617032e+00 0
2.5378575644602805e+01 -3.4231065308466029e+00 0
1.2186684530622757e+02 -2.0743888845709023e+01 0
1.2262882457298646e+02 -1.9573948072614726e+01 0
2.6455074946309310e+01 -4.6192255883841700e+00 0
2.5998359542475370e+01 -4.2665257686009248e+00 0
1.2001969482208899e+02 -2.2166776746934559e+01 0
1.2103973013860475e+02 -2.1661461934103521e+01 0
2.7760146778869959e+01 -5.1600645358293900e+00 0
2.6992334409943012e+01 -4.9139114332923484e+00 0
1.1782989593710832e+02 -2.2358043359845869e+01 0
1.1900169945957003e+02 -2.2441646086309262e+01 0
2.9564471604115436e+01 -5.5545228408984677e+00 0
2.8568500469705064e+01 -5.3361607003802778e+00 0
1.1522019904202924e+02 -2.1869972727909783e+01 0
1.1659516680852002e+02 -2.2104446790502259e+01 0
3.1754103572240734e+01 -5.9699356887810566e+00 0
3.0618952512513754e+01 -5.7664302613012435e+00 0
1.1200857499495839e+02 -2.1393186904892307e+01 0
1.1364421343599557e+02 -2.1678673542357036e+01 0
3.4220037819693573e+01 -6.3531554702564215e+00 0
3.2997383468280688e+01 -6.1749269122937029e+00 0
1.0836302083686135e+02 -2.0141322518978974e+01 0
1.1022595565410896e+02 -2.0830735193859216e+01 0
3.6784654653763297e+01 -6.7465318724206256e+00 0
3.5516796149616951e+01 -6.5775406457752617e+00 0
1.0412027263970917e+02 -1.8768357705274418e+01 0
1.0632588652443337e+02 -1.9463119982352232e+01 0
3.9437938097541632e+01 -6.9021239457800121e+00 0
3.8104110231239424e+01 -6.8574282096642207e+00 0
9.9342015096497775e+01 -1.6943233550507284e+01 0
1.0180375689840638e+02 -1.7941445671331845e+01 0
4.1961520050858894e+01 -6.9567286227066454e+00 0
4.0718258678900199e+01 -6.9090729446679724e+00 0
9.3467197716106966e+01 -1.5213071730718617e+01 0
9.6621940744092328e+01 -1.5930187569537409e+01 0
4.4037436216657809e+01 -7.1044975553622578e+00 0
4.3063551446409733e+01 -6.9913588440894188e+00 0
8.5746431949834687e+01 -1.4339933060867196e+01 0
8.9854442548374124e+01 -1.4655692407449237e+01 0
4.5524003870476001e+01 -7.6308370661012432e+00 0
4.4836264349973206e+01 -7.2661329250592104e+00 0
7.5716663012290894e+01 -1.2950988860614554e+01 0
8.1061998964281855e+01 -1.4089864337314335e+01 0
4.6252146855767499e+01 -7.9507108899530046e+00 0
4.6084765637824582e+01 -8.0913884509588563e+00 0
6.2585072049223321e+01 -8.8329384468262546e+00 0
6.9629980223344006e+01 -1.0067407010111651e+01 0
4.5850541000726274e+01 -6.7827871403460662e+00 0
4.5824029348774594e+01 -6.7183543616975854e+00 0
4.3839365292812047e+01 -2.4683919020766147e+01 0
5.4272955075530405e+01 -1.8090383986734537e+01 0
5.2227482706337952e+01 -1.9779401678003204e+01 0
4.9341699928587218e+01 -1.4337941168858563e+01 0
1.8894866148782206e+01 9.1681206527293241e+01 0
1.6329704584886329e+01 8.8789463502461061e+01 0
3.1722211520313664e+01 6.8708008186647049e+00 0
1.8179980827901829e+01 9.6801635395633554e+01 0
1.2061173148763181e+01 6.6928450580730555e+01 0
1.4151598940492271e+01 7.6974895401336468e+01 0
1.1684297525763398e+01 5.4631860957958317e+01 0
4.1936924864060586e+01 -8.1429080764801398e-01 0
1.0635610862728257e+01 5.9186182830493998e+01 0

