# vtk DataFile Version 2.0

ASCII

DATASET UNSTRUCTURED_GRID

POINTS 79 float 

-5.0000000000000003e-02  0.0000000000000000e+00  0.0000000000000000e+00
-5.0000000000000003e-02  5.5555555555555552e-02  0.0000000000000000e+00
-5.0000000000000003e-02  2.7777777777777776e-02  0.0000000000000000e+00
5.0000000000000003e-02  0.0000000000000000e+00  0.0000000000000000e+00
5.0000000000000003e-02  5.5555555555555552e-02  0.0000000000000000e+00
5.0000000000000003e-02  2.7777777777777776e-02  0.0000000000000000e+00
-5.0000000000000003e-02  1.1111111111111110e-01  0.0000000000000000e+00
-5.0000000000000003e-02  8.3333333333333329e-02  0.0000000000000000e+00
5.0000000000000003e-02  1.1111111111111110e-01  0.0000000000000000e+00
5.0000000000000003e-02  8.3333333333333329e-02  0.0000000000000000e+00
-5.0000000000000003e-02  1.6666666666666666e-01  0.0000000000000000e+00
-5.0000000000000003e-02  1.3888888888888890e-01  0.0000000000000000e+00
5.0000000000000003e-02  1.6666666666666666e-01  0.0000000000000000e+00
5.0000000000000003e-02  1.3888888888888890e-01  0.0000000000000000e+00
-5.0000000000000003e-02  2.2222222222222221e-01  0.0000000000000000e+00
-5.0000000000000003e-02  1.9444444444444442e-01  0.0000000000000000e+00
5.0000000000000003e-02  2.2222222222222221e-01  0.0000000000000000e+00
5.0000000000000003e-02  1.9444444444444442e-01  0.0000000000000000e+00
-5.0000000000000003e-02  2.7777777777777779e-01  0.0000000000000000e+00
-5.0000000000000003e-02  2.5000000000000000e-01  0.0000000000000000e+00
5.0000000000000003e-02  2.7777777777777779e-01  0.0000000000000000e+00
5.0000000000000003e-02  2.5000000000000000e-01  0.0000000000000000e+00
-5.0000000000000003e-02  3.3333333333333331e-01  0.0000000000000000e+00
-5.0000000000000003e-02  3.0555555555555558e-01  0.0000000000000000e+00
5.0000000000000003e-02  3.3333333333333331e-01  0.0000000000000000e+00
5.0000000000000003e-02  3.0555555555555558e-01  0.0000000000000000e+00
-5.0000000000000003e-02  3.8888888888888884e-01  0.0000000000000000e+00
-5.0000000000000003e-02  3.6111111111111105e-01  0.0000000000000000e+00
5.0000000000000003e-02  3.8888888888888884e-01  0.0000000000000000e+00
5.0000000000000003e-02  3.6111111111111105e-01  0.0000000000000000e+00
-5.0000000000000003e-02  4.4444444444444442e-01  0.0000000000000000e+00
-5.0000000000000003e-02  4.1666666666666663e-01  0.0000000000000000e+00
5.0000000000000003e-02  4.4444444444444442e-01  0.0000000000000000e+00
5.0000000000000003e-02  4.1666666666666663e-01  0.0000000000000000e+00
-5.0000000000000003e-02  5.0000000000000000e-01  0.0000000000000000e+00
-5.0000000000000003e-02  4.7222222222222221e-01  0.0000000000000000e+00
5.0000000000000003e-02  5.0000000000000000e-01  0.0000000000000000e+00
5.0000000000000003e-02  4.7222222222222221e-01  0.0000000000000000e+00
-5.0000000000000003e-02  5.5555555555555558e-01  0.0000000000000000e+00
-5.0000000000000003e-02  5.2777777777777779e-01  0.0000000000000000e+00
5.0000000000000003e-02  5.5555555555555558e-01  0.0000000000000000e+00
5.0000000000000003e-02  5.2777777777777779e-01  0.0000000000000000e+00
-5.0000000000000003e-02  6.1111111111111105e-01  0.0000000000000000e+00
-5.0000000000000003e-02  5.8333333333333326e-01  0.0000000000000000e+00
5.0000000000000003e-02  6.1111111111111105e-01  0.0000000000000000e+00
5.0000000000000003e-02  5.8333333333333326e-01  0.0000000000000000e+00
-5.0000000000000003e-02  6.6666666666666663e-01  0.0000000000000000e+00
-5.0000000000000003e-02  6.3888888888888884e-01  0.0000000000000000e+00
5.0000000000000003e-02  6.6666666666666663e-01  0.0000000000000000e+00
5.0000000000000003e-02  6.3888888888888884e-01  0.0000000000000000e+00
-5.0000000000000003e-02  7.2222222222222221e-01  0.0000000000000000e+00
-5.0000000000000003e-02  6.9444444444444442e-01  0.0000000000000000e+00
5.0000000000000003e-02  7.2222222222222221e-01  0.0000000000000000e+00
5.0000000000000003e-02  6.9444444444444442e-01  0.0000000000000000e+00
-5.0000000000000003e-02  7.7777777777777768e-01  0.0000000000000000e+00
-5.0000000000000003e-02  7.5000000000000000e-01  0.0000000000000000e+00
5.0000000000000003e-02  7.7777777777777768e-01  0.0000000000000000e+00
5.0000000000000003e-02  7.5000000000000000e-01  0.0000000000000000e+00
-5.0000000000000003e-02  8.3333333333333326e-01  0.0000000000000000e+00
-5.0000000000000003e-02  8.0555555555555547e-01  0.0000000000000000e+00
5.0000000000000003e-02  8.3333333333333326e-01  0.0000000000000000e+00
5.0000000000000003e-02  8.0555555555555547e-01  0.0000000000000000e+00
-5.0000000000000003e-02  8.8888888888888884e-01  0.0000000000000000e+00
-5.0000000000000003e-02  8.6111111111111105e-01  0.0000000000000000e+00
5.0000000000000003e-02  8.8888888888888884e-01  0.0000000000000000e+00
5.0000000000000003e-02  8.6111111111111105e-01  0.0000000000000000e+00
-5.0000000000000003e-02  9.4444444444444442e-01  0.0000000000000000e+00
-5.0000000000000003e-02  9.1666666666666663e-01  0.0000000000000000e+00
5.0000000000000003e-02  9.4444444444444442e-01  0.0000000000000000e+00
5.0000000000000003e-02  9.1666666666666663e-01  0.0000000000000000e+00
-5.0000000000000003e-02  1.0000000000000000e+00  0.0000000000000000e+00
-1.6666666666666670e-02  1.0000000000000000e+00  0.0000000000000000e+00
-5.0000000000000003e-02  9.7222222222222221e-01  0.0000000000000000e+00
-3.3333333333333340e-02  1.0000000000000000e+00  0.0000000000000000e+00
1.6666666666666663e-02  1.0000000000000000e+00  0.0000000000000000e+00
-3.4694469519536142e-18  1.0000000000000000e+00  0.0000000000000000e+00
5.0000000000000003e-02  1.0000000000000000e+00  0.0000000000000000e+00
5.0000000000000003e-02  9.7222222222222221e-01  0.0000000000000000e+00
3.3333333333333333e-02  1.0000000000000000e+00  0.0000000000000000e+00

CELLS 0 0


CELL_TYPES 0


POINT_DATA 79

VECTORS VertexNormals float

0.0000000000000000e+00 0.0000000000000000e+00 0
0.0000000000000000e+00 0.0000000000000000e+00 0
0.0000000000000000e+00 0.0000000000000000e+00 0
0.0000000000000000e+00 0.0000000000000000e+00 0
0.0000000000000000e+00 0.0000000000000000e+00 0
0.0000000000000000e+00 0.0000000000000000e+00 0
0.0000000000000000e+00 0.0000000000000000e+00 0
0.0000000000000000e+00 0.0000000000000000e+00 0
0.0000000000000000e+00 0.0000000000000000e+00 0
0.0000000000000000e+00 0.0000000000000000e+00 0
0.0000000000000000e+00 0.0000000000000000e+00 0
0.0000000000000000e+00 0.0000000000000000e+00 0
0.0000000000000000e+00 0.0000000000000000e+00 0
0.0000000000000000e+00 0.0000000000000000e+00 0
0.0000000000000000e+00 0.0000000000000000e+00 0
0.0000000000000000e+00 0.0000000000000000e+00 0
0.0000000000000000e+00 0.0000000000000000e+00 0
0.0000000000000000e+00 0.0000000000000000e+00 0
0.0000000000000000e+00 0.0000000000000000e+00 0
0.0000000000000000e+00 0.0000000000000000e+00 0
0.0000000000000000e+00 0.0000000000000000e+00 0
0.0000000000000000e+00 0.0000000000000000e+00 0
0.0000000000000000e+00 0.0000000000000000e+00 0
0.0000000000000000e+00 0.0000000000000000e+00 0
0.0000000000000000e+00 0.0000000000000000e+00 0
0.0000000000000000e+00 0.0000000000000000e+00 0
0.0000000000000000e+00 0.0000000000000000e+00 0
0.0000000000000000e+00 0.0000000000000000e+00 0
0.0000000000000000e+00 0.0000000000000000e+00 0
0.0000000000000000e+00 0.0000000000000000e+00 0
0.0000000000000000e+00 0.0000000000000000e+00 0
0.0000000000000000e+00 0.0000000000000000e+00 0
0.0000000000000000e+00 0.0000000000000000e+00 0
0.0000000000000000e+00 0.0000000000000000e+00 0
0.0000000000000000e+00 0.0000000000000000e+00 0
0.0000000000000000e+00 0.0000000000000000e+00 0
0.0000000000000000e+00 0.0000000000000000e+00 0
0.0000000000000000e+00 0.0000000000000000e+00 0
0.0000000000000000e+00 0.0000000000000000e+00 0
0.0000000000000000e+00 0.0000000000000000e+00 0
0.0000000000000000e+00 0.0000000000000000e+00 0
0.0000000000000000e+00 0.0000000000000000e+00 0
0.0000000000000000e+00 0.0000000000000000e+00 0
0.0000000000000000e+00 0.0000000000000000e+00 0
0.0000000000000000e+00 0.0000000000000000e+00 0
0.0000000000000000e+00 0.0000000000000000e+00 0
0.0000000000000000e+00 0.0000000000000000e+00 0
0.0000000000000000e+00 0.0000000000000000e+00 0
0.0000000000000000e+00 0.0000000000000000e+00 0
0.0000000000000000e+00 0.0000000000000000e+00 0
0.0000000000000000e+00 0.0000000000000000e+00 0
0.0000000000000000e+00 0.0000000000000000e+00 0
0.0000000000000000e+00 0.0000000000000000e+00 0
0.0000000000000000e+00 0.0000000000000000e+00 0
0.0000000000000000e+00 0.0000000000000000e+00 0
0.0000000000000000e+00 0.0000000000000000e+00 0
0.0000000000000000e+00 0.0000000000000000e+00 0
0.0000000000000000e+00 0.0000000000000000e+00 0
0.0000000000000000e+00 0.0000000000000000e+00 0
0.0000000000000000e+00 0.0000000000000000e+00 0
0.0000000000000000e+00 0.0000000000000000e+00 0
0.0000000000000000e+00 0.0000000000000000e+00 0
0.0000000000000000e+00 0.0000000000000000e+00 0
0.0000000000000000e+00 0.0000000000000000e+00 0
0.0000000000000000e+00 0.0000000000000000e+00 0
0.0000000000000000e+00 0.0000000000000000e+00 0
0.0000000000000000e+00 0.0000000000000000e+00 0
0.0000000000000000e+00 0.0000000000000000e+00 0
0.0000000000000000e+00 0.0000000000000000e+00 0
0.0000000000000000e+00 0.0000000000000000e+00 0
0.0000000000000000e+00 0.0000000000000000e+00 0
0.0000000000000000e+00 0.0000000000000000e+00 0
0.0000000000000000e+00 0.0000000000000000e+00 0
0.0000000000000000e+00 0.0000000000000000e+00 0
0.0000000000000000e+00 0.0000000000000000e+00 0
0.0000000000000000e+00 0.0000000000000000e+00 0
0.0000000000000000e+00 0.0000000000000000e+00 0
0.0000000000000000e+00 0.0000000000000000e+00 0
0.0000000000000000e+00 0.0000000000000000e+00 0

VECTORS Displacement float
0.0000000000000000e+00 0.0000000000000000e+00 0
1.8312696853886386e-03 2.2505886168446938e-03 0
7.5832184705997940e-04 1.1509412945268837e-03 0
0.0000000000000000e+00 0.0000000000000000e+00 0
1.9751036482507619e-03 -2.3734261829892480e-03 0
8.5323310040207544e-04 -1.2440400602090726e-03 0
5.9656753585482711e-03 4.2302410014207698e-03 0
3.6334424455378312e-03 3.3057318899795780e-03 0
6.0404190515911341e-03 -4.4168458811743722e-03 0
3.7458906603704527e-03 -3.4483983811985515e-03 0
1.2053004099045944e-02 5.6072432708911650e-03 0
8.7886445963518845e-03 4.9932634889608522e-03 0
1.2186830390573184e-02 -5.8534099371486880e-03 0
8.8876319447319385e-03 -5.2228249715517549e-03 0
1.9283704105642400e-02 6.3328948800491719e-03 0
1.5586354476678898e-02 6.0336021884696963e-03 0
1.9301415991874432e-02 -6.6343213717012335e-03 0
1.5669542070178653e-02 -6.2941969734023667e-03 0
2.6951297493713867e-02 6.6588044894690711e-03 0
2.3090932760333423e-02 6.5291139103910061e-03 0
2.7054274168227747e-02 -7.0055495364159922e-03 0
2.3124634698416371e-02 -6.8792929152087347e-03 0
3.4816716582974361e-02 6.6653443056117773e-03 0
3.0879368776285807e-02 6.7114115108433264e-03 0
3.4844956770361729e-02 -6.8997367588353427e-03 0
3.0981771617948864e-02 -6.9910621216558843e-03 0
4.2419658990523385e-02 6.2869661296583810e-03 0
3.8668572189535233e-02 6.5214525942442064e-03 0
4.2532717097833961e-02 -6.5172908399082213e-03 0
3.8709539716956821e-02 -6.7590604129419323e-03 0
4.9303000243736780e-02 5.5208953146079357e-03 0
4.5991553933322396e-02 5.9335498971617440e-03 0
4.9405275540964459e-02 -5.7660193583860004e-03 0
4.6113757681741217e-02 -6.1553158205299458e-03 0
5.5150033898082595e-02 4.6612698551450346e-03 0
5.2363703538470766e-02 5.0895028186760533e-03 0
5.5262237161814054e-02 -4.9273734769724326e-03 0
5.2468581792040891e-02 -5.3580774621243589e-03 0
6.0015577076639230e-02 3.8771189004176108e-03 0
5.7679836928155967e-02 4.2652743337313831e-03 0
6.0125971275752484e-02 -4.1686766356656742e-03 0
5.7791431664796548e-02 -4.5280042087116265e-03 0
6.4064202243975549e-02 3.0482495655557579e-03 0
6.2153567560218836e-02 3.4649619291908136e-03 0
6.4200256002499276e-02 -3.4655609302631230e-03 0
6.2272677788874992e-02 -3.8203758728852883e-03 0
6.7240039166495583e-02 2.2735886386878079e-03 0
6.5765915791612048e-02 2.6514039975406595e-03 0
6.7341427742061907e-02 -2.6823606149398186e-03 0
6.5900120984426214e-02 -3.0828549440405531e-03 0
6.9469641434681650e-02 1.6552998571530667e-03 0
6.8454339216435511e-02 1.9310919329806567e-03 0
6.9554354224940565e-02 -2.1102610934155583e-03 0
6.8522479786203766e-02 -2.3451876997773397e-03 0
7.1301741611424496e-02 1.2832577972128768e-03 0
7.0404524536359203e-02 1.4637503116865509e-03 0
7.1419621769470518e-02 -1.7575680388287422e-03 0
7.0535575122836147e-02 -1.9326462754899239e-03 0
7.2683815970503551e-02 8.9188093452209323e-04 0
7.2078850975963255e-02 1.0692616780055642e-03 0
7.2756846527784871e-02 -1.4843092172474881e-03 0
7.2147328223885268e-02 -1.5999368855879469e-03 0
7.3708963913737213e-02 8.0001716512862842e-04 0
7.3194886104441456e-02 8.1167821442207388e-04 0
7.3879550944761146e-02 -1.3612201718487622e-03 0
7.3327159648698459e-02 -1.4175127241626206e-03 0
7.4856702841993902e-02 8.0881175299637575e-04 0
7.4280506495451273e-02 8.0982253779967217e-04 0
7.4905885386963106e-02 -1.2990075697320550e-03 0
7.4396146295830246e-02 -1.3167765011992099e-03 0
7.5953821594290621e-02 8.3429069269031202e-04 0
7.5986568034756397e-02 8.8358158676908605e-05 0
7.5389629466622407e-02 8.2202944243390651e-04 0
7.5966466830178228e-02 4.6720117573021682e-04 0
7.5985406622932225e-02 -6.1522658379620698e-04 0
7.5995532184842979e-02 -2.7008048173629502e-04 0
7.5960273359289288e-02 -1.2685692255255834e-03 0
7.5427223279320457e-02 -1.2833727291754662e-03 0
7.5967831550429341e-02 -9.4730365483813221e-04 0

VECTORS Stress float
1.2658714351480704e+02 -3.4156653537084068e+01 0
1.0882990332827639e+02 -1.4019918647968144e-01 0
1.1314236068670610e+02 -7.1297377108168511e+00 0
7.9387980018530811e+01 -3.2259936838864171e+01 0
6.0052584707415591e+01 1.8530101679005273e+00 0
6.4760958117402794e+01 -5.7248958174768951e+00 0
1.1172475321334926e+02 -1.0751192247139107e+01 0
1.1006804343250965e+02 -5.0315636037585865e+00 0
6.2864481421634146e+01 -6.6307521112610086e+00 0
6.1194876054272790e+01 -1.9360357543407911e+00 0
1.1103999594029629e+02 -1.3256453966974419e+01 0
1.1151574175593147e+02 -1.2493665349931751e+01 0
6.2494592530215002e+01 -7.7121511651594830e+00 0
6.2813666136110868e+01 -7.5816579828122812e+00 0
1.1050962731117345e+02 -1.4654436651017516e+01 0
1.1068800329776197e+02 -1.3970293015523739e+01 0
6.3055974605872308e+01 -8.4963634449875194e+00 0
6.2669365693358500e+01 -8.0649649653779090e+00 0
1.0974767473596992e+02 -1.5306152397214401e+01 0
1.1018832665517206e+02 -1.5096050642203327e+01 0
6.4281482953742568e+01 -8.9375916979635441e+00 0
6.3615061117784727e+01 -8.7900026778295590e+00 0
1.0866464998079508e+02 -1.5165155664769401e+01 0
1.0928531548909952e+02 -1.5356043412022991e+01 0
6.6044412521349457e+01 -9.1291038916464800e+00 0
6.5052387342981817e+01 -9.0436739179936581e+00 0
1.0738508822863231e+02 -1.4132206530373427e+01 0
1.0808118267774474e+02 -1.4794455877701303e+01 0
6.8451583165148364e+01 -8.8382974176597635e+00 0
6.7121451757737773e+01 -9.0955383103052867e+00 0
1.0588618130740059e+02 -1.2231384321317094e+01 0
1.0666712732216686e+02 -1.3258108364423411e+01 0
7.1405150498340362e+01 -7.9102995272137733e+00 0
6.9888551249919615e+01 -8.4105005264732817e+00 0
1.0397108548158765e+02 -9.9852098820892863e+00 0
1.0497274529565597e+02 -1.1098788966753037e+01 0
7.4510982412509676e+01 -6.8884719211154533e+00 0
7.2991746763461961e+01 -7.3965157309511831e+00 0
1.0138039029823895e+02 -8.1318254783374755e+00 0
1.0274806404608175e+02 -9.0380014545729672e+00 0
7.7377817704096230e+01 -5.9966658379937456e+00 0
7.6004363831024406e+01 -6.4435100233687344e+00 0
9.8115744340160887e+01 -6.3430834616663745e+00 0
9.9841730391587745e+01 -7.2491697317746500e+00 0
7.9857274734582944e+01 -4.9452431935181238e+00 0
7.8673708282130434e+01 -5.5050778009466725e+00 0
9.4052067020195892e+01 -4.4511741639832465e+00 0
9.6199399485484975e+01 -5.3905294913413186e+00 0
8.1770454258541449e+01 -3.7107214571471232e+00 0
8.0884228440393940e+01 -4.3314735874672010e+00 0
8.8709859228910545e+01 -2.9825698654275357e+00 0
9.1587073230574404e+01 -3.5522090721559607e+00 0
8.2811313922508191e+01 -2.7402970997668703e+00 0
8.2410116709148397e+01 -3.1147523898073928e+00 0
8.1668984339389795e+01 -2.3932851575746383e+00 0
8.5395030824152968e+01 -2.5681045332248402e+00 0
8.3102290630479018e+01 -2.3894681764059840e+00 0
8.2971810024059693e+01 -2.4694924264103832e+00 0
7.2303247741001741e+01 -1.2077707724086508e+00 0
7.7420118234314145e+01 -2.2778419090620048e+00 0
8.2546284983264059e+01 -1.5793741600561617e+00 0
8.3164023714626097e+01 -2.3545454440546010e+00 0
5.8567053307186541e+01 1.9618393901928286e+00 0
6.5983845080771061e+01 1.6621101136511172e+00 0
8.0062111394904520e+01 6.6640596520294793e-01 0
8.0836516378086770e+01 5.1172957775427363e-01 0
3.8681448542292280e+01 -2.2822227723583971e+01 0
5.0306716594006936e+01 -1.1995683697131888e+01 0
9.1236512800160909e+01 -1.7077896554468403e+01 0
8.6305526625339269e+01 -9.5866361373821292e+00 0
-2.2785001353927825e+00 1.2544833771355192e+02 0
3.8263004762912800e+00 1.2621863183175992e+02 0
2.1526547536860832e+01 1.6164430411186089e+01 0
3.1891690385248950e+00 1.3334732015805082e+02 0
8.1940304586314738e-01 1.0249781870395034e+02 0
2.4845921770348767e+00 1.1416757634023178e+02 0
1.0983641137169947e+01 8.5002214746815724e+01 0
7.0052899458964148e+01 9.0810530356861889e+00 0
1.7191586149717182e+00 9.2446863521210815e+01 0

