# vtk DataFile Version 2.0

ASCII

DATASET UNSTRUCTURED_GRID

POINTS 79 float 

-5.0000000000000003e-02  0.0000000000000000e+00  0.0000000000000000e+00
-5.0000000000000003e-02  5.5555555555555552e-02  0.0000000000000000e+00
-5.0000000000000003e-02  2.7777777777777776e-02  0.0000000000000000e+00
5.0000000000000003e-02  0.0000000000000000e+00  0.0000000000000000e+00
5.0000000000000003e-02  5.5555555555555552e-02  0.0000000000000000e+00
5.0000000000000003e-02  2.7777777777777776e-02  0.0000000000000000e+00
-5.0000000000000003e-02  1.1111111111111110e-01  0.0000000000000000e+00
-5.0000000000000003e-02  8.3333333333333329e-02  0.0000000000000000e+00
5.0000000000000003e-02  1.1111111111111110e-01  0.0000000000000000e+00
5.0000000000000003e-02  8.3333333333333329e-02  0.0000000000000000e+00
-5.0000000000000003e-02  1.6666666666666666e-01  0.0000000000000000e+00
-5.0000000000000003e-02  1.3888888888888890e-01  0.0000000000000000e+00
5.0000000000000003e-02  1.6666666666666666e-01  0.0000000000000000e+00
5.0000000000000003e-02  1.3888888888888890e-01  0.0000000000000000e+00
-5.0000000000000003e-02  2.2222222222222221e-01  0.0000000000000000e+00
-5.0000000000000003e-02  1.9444444444444442e-01  0.0000000000000000e+00
5.0000000000000003e-02  2.2222222222222221e-01  0.0000000000000000e+00
5.0000000000000003e-02  1.9444444444444442e-01  0.0000000000000000e+00
-5.0000000000000003e-02  2.7777777777777779e-01  0.0000000000000000e+00
-5.0000000000000003e-02  2.5000000000000000e-01  0.0000000000000000e+00
5.0000000000000003e-02  2.7777777777777779e-01  0.0000000000000000e+00
5.0000000000000003e-02  2.5000000000000000e-01  0.0000000000000000e+00
-5.0000000000000003e-02  3.3333333333333331e-01  0.0000000000000000e+00
-5.0000000000000003e-02  3.0555555555555558e-01  0.0000000000000000e+00
5.0000000000000003e-02  3.3333333333333331e-01  0.0000000000000000e+00
5.0000000000000003e-02  3.0555555555555558e-01  0.0000000000000000e+00
-5.0000000000000003e-02  3.8888888888888884e-01  0.0000000000000000e+00
-5.0000000000000003e-02  3.6111111111111105e-01  0.0000000000000000e+00
5.0000000000000003e-02  3.8888888888888884e-01  0.0000000000000000e+00
5.0000000000000003e-02  3.6111111111111105e-01  0.0000000000000000e+00
-5.0000000000000003e-02  4.4444444444444442e-01  0.0000000000000000e+00
-5.0000000000000003e-02  4.1666666666666663e-01  0.0000000000000000e+00
5.0000000000000003e-02  4.4444444444444442e-01  0.0000000000000000e+00
5.0000000000000003e-02  4.1666666666666663e-01  0.0000000000000000e+00
-5.0000000000000003e-02  5.0000000000000000e-01  0.0000000000000000e+00
-5.0000000000000003e-02  4.7222222222222221e-01  0.0000000000000000e+00
5.0000000000000003e-02  5.0000000000000000e-01  0.0000000000000000e+00
5.0000000000000003e-02  4.7222222222222221e-01  0.0000000000000000e+00
-5.0000000000000003e-02  5.5555555555555558e-01  0.0000000000000000e+00
-5.0000000000000003e-02  5.2777777777777779e-01  0.0000000000000000e+00
5.0000000000000003e-02  5.5555555555555558e-01  0.0000000000000000e+00
5.0000000000000003e-02  5.2777777777777779e-01  0.0000000000000000e+00
-5.0000000000000003e-02  6.1111111111111105e-01  0.0000000000000000e+00
-5.0000000000000003e-02  5.8333333333333326e-01  0.0000000000000000e+00
5.0000000000000003e-02  6.1111111111111105e-01  0.0000000000000000e+00
5.0000000000000003e-02  5.8333333333333326e-01  0.0000000000000000e+00
-5.0000000000000003e-02  6.6666666666666663e-01  0.0000000000000000e+00
-5.0000000000000003e-02  6.3888888888888884e-01  0.0000000000000000e+00
5.0000000000000003e-02  6.6666666666666663e-01  0.0000000000000000e+00
5.0000000000000003e-02  6.3888888888888884e-01  0.0000000000000000e+00
-5.0000000000000003e-02  7.2222222222222221e-01  0.0000000000000000e+00
-5.0000000000000003e-02  6.9444444444444442e-01  0.0000000000000000e+00
5.0000000000000003e-02  7.2222222222222221e-01  0.0000000000000000e+00
5.0000000000000003e-02  6.9444444444444442e-01  0.0000000000000000e+00
-5.0000000000000003e-02  7.7777777777777768e-01  0.0000000000000000e+00
-5.0000000000000003e-02  7.5000000000000000e-01  0.0000000000000000e+00
5.0000000000000003e-02  7.7777777777777768e-01  0.0000000000000000e+00
5.0000000000000003e-02  7.5000000000000000e-01  0.0000000000000000e+00
-5.0000000000000003e-02  8.3333333333333326e-01  0.0000000000000000e+00
-5.0000000000000003e-02  8.0555555555555547e-01  0.0000000000000000e+00
5.0000000000000003e-02  8.3333333333333326e-01  0.0000000000000000e+00
5.0000000000000003e-02  8.0555555555555547e-01  0.0000000000000000e+00
-5.0000000000000003e-02  8.8888888888888884e-01  0.0000000000000000e+00
-5.0000000000000003e-02  8.6111111111111105e-01  0.0000000000000000e+00
5.0000000000000003e-02  8.8888888888888884e-01  0.0000000000000000e+00
5.0000000000000003e-02  8.6111111111111105e-01  0.0000000000000000e+00
-5.0000000000000003e-02  9.4444444444444442e-01  0.0000000000000000e+00
-5.0000000000000003e-02  9.1666666666666663e-01  0.0000000000000000e+00
5.0000000000000003e-02  9.4444444444444442e-01  0.0000000000000000e+00
5.0000000000000003e-02  9.1666666666666663e-01  0.0000000000000000e+00
-5.0000000000000003e-02  1.0000000000000000e+00  0.0000000000000000e+00
-1.6666666666666670e-02  1.0000000000000000e+00  0.0000000000000000e+00
-5.0000000000000003e-02  9.7222222222222221e-01  0.0000000000000000e+00
-3.3333333333333340e-02  1.0000000000000000e+00  0.0000000000000000e+00
1.6666666666666663e-02  1.0000000000000000e+00  0.0000000000000000e+00
-3.4694469519536142e-18  1.0000000000000000e+00  0.0000000000000000e+00
5.0000000000000003e-02  1.0000000000000000e+00  0.0000000000000000e+00
5.0000000000000003e-02  9.7222222222222221e-01  0.0000000000000000e+00
3.3333333333333333e-02  1.0000000000000000e+00  0.0000000000000000e+00

CELLS 0 0


CELL_TYPES 0


POINT_DATA 79

VECTORS VertexNormals float

0.0000000000000000e+00 0.0000000000000000e+00 0
0.0000000000000000e+00 0.0000000000000000e+00 0
0.0000000000000000e+00 0.0000000000000000e+00 0
0.0000000000000000e+00 0.0000000000000000e+00 0
0.0000000000000000e+00 0.0000000000000000e+00 0
0.0000000000000000e+00 0.0000000000000000e+00 0
0.0000000000000000e+00 0.0000000000000000e+00 0
0.0000000000000000e+00 0.0000000000000000e+00 0
0.0000000000000000e+00 0.0000000000000000e+00 0
0.0000000000000000e+00 0.0000000000000000e+00 0
0.0000000000000000e+00 0.0000000000000000e+00 0
0.0000000000000000e+00 0.0000000000000000e+00 0
0.0000000000000000e+00 0.0000000000000000e+00 0
0.0000000000000000e+00 0.0000000000000000e+00 0
0.0000000000000000e+00 0.0000000000000000e+00 0
0.0000000000000000e+00 0.0000000000000000e+00 0
0.0000000000000000e+00 0.0000000000000000e+00 0
0.0000000000000000e+00 0.0000000000000000e+00 0
0.0000000000000000e+00 0.0000000000000000e+00 0
0.0000000000000000e+00 0.0000000000000000e+00 0
0.0000000000000000e+00 0.0000000000000000e+00 0
0.0000000000000000e+00 0.0000000000000000e+00 0
0.0000000000000000e+00 0.0000000000000000e+00 0
0.0000000000000000e+00 0.0000000000000000e+00 0
0.0000000000000000e+00 0.0000000000000000e+00 0
0.0000000000000000e+00 0.0000000000000000e+00 0
0.0000000000000000e+00 0.0000000000000000e+00 0
0.0000000000000000e+00 0.0000000000000000e+00 0
0.0000000000000000e+00 0.0000000000000000e+00 0
0.0000000000000000e+00 0.0000000000000000e+00 0
0.0000000000000000e+00 0.0000000000000000e+00 0
0.0000000000000000e+00 0.0000000000000000e+00 0
0.0000000000000000e+00 0.0000000000000000e+00 0
0.0000000000000000e+00 0.0000000000000000e+00 0
0.0000000000000000e+00 0.0000000000000000e+00 0
0.0000000000000000e+00 0.0000000000000000e+00 0
0.0000000000000000e+00 0.0000000000000000e+00 0
0.0000000000000000e+00 0.0000000000000000e+00 0
0.0000000000000000e+00 0.0000000000000000e+00 0
0.0000000000000000e+00 0.0000000000000000e+00 0
0.0000000000000000e+00 0.0000000000000000e+00 0
0.0000000000000000e+00 0.0000000000000000e+00 0
0.0000000000000000e+00 0.0000000000000000e+00 0
0.0000000000000000e+00 0.0000000000000000e+00 0
0.0000000000000000e+00 0.0000000000000000e+00 0
0.0000000000000000e+00 0.0000000000000000e+00 0
0.0000000000000000e+00 0.0000000000000000e+00 0
0.0000000000000000e+00 0.0000000000000000e+00 0
0.0000000000000000e+00 0.0000000000000000e+00 0
0.0000000000000000e+00 0.0000000000000000e+00 0
0.0000000000000000e+00 0.0000000000000000e+00 0
0.0000000000000000e+00 0.0000000000000000e+00 0
0.0000000000000000e+00 0.0000000000000000e+00 0
0.0000000000000000e+00 0.0000000000000000e+00 0
0.0000000000000000e+00 0.0000000000000000e+00 0
0.0000000000000000e+00 0.0000000000000000e+00 0
0.0000000000000000e+00 0.0000000000000000e+00 0
0.0000000000000000e+00 0.0000000000000000e+00 0
0.0000000000000000e+00 0.0000000000000000e+00 0
0.0000000000000000e+00 0.0000000000000000e+00 0
0.0000000000000000e+00 0.0000000000000000e+00 0
0.0000000000000000e+00 0.0000000000000000e+00 0
0.0000000000000000e+00 0.0000000000000000e+00 0
0.0000000000000000e+00 0.0000000000000000e+00 0
0.0000000000000000e+00 0.0000000000000000e+00 0
0.0000000000000000e+00 0.0000000000000000e+00 0
0.0000000000000000e+00 0.0000000000000000e+00 0
0.0000000000000000e+00 0.0000000000000000e+00 0
0.0000000000000000e+00 0.0000000000000000e+00 0
0.0000000000000000e+00 0.0000000000000000e+00 0
0.0000000000000000e+00 0.0000000000000000e+00 0
0.0000000000000000e+00 0.0000000000000000e+00 0
0.0000000000000000e+00 0.0000000000000000e+00 0
0.0000000000000000e+00 0.0000000000000000e+00 0
0.0000000000000000e+00 0.0000000000000000e+00 0
0.0000000000000000e+00 0.0000000000000000e+00 0
0.0000000000000000e+00 0.0000000000000000e+00 0
0.0000000000000000e+00 0.0000000000000000e+00 0
0.0000000000000000e+00 0.0000000000000000e+00 0

VECTORS Displacement float
0.0000000000000000e+00 0.0000000000000000e+00 0
2.0358643909043580e-03 2.4631342889320220e-03 0
8.5215699713521128e-04 1.2729967646513787e-03 0
0.0000000000000000e+00 0.0000000000000000e+00 0
2.1269804887845477e-03 -2.5231109636775642e-03 0
8.9288831696632026e-04 -1.3244729506384926e-03 0
6.3616471557868225e-03 4.5478464856176914e-03 0
3.9469574850235188e-03 3.5672917603561840e-03 0
6.3710145275001958e-03 -4.5468009882957492e-03 0
4.0129527339448070e-03 -3.5926598662409980e-03 0
1.2614988440294321e-02 6.1851940685328450e-03 0
9.2516504338835681e-03 5.4127677091849284e-03 0
1.2663602618448001e-02 -6.1541762072154140e-03 0
9.2606211789020496e-03 -5.4058855969280929e-03 0
2.0421742363287552e-02 7.4640308745068940e-03 0
1.6356680169016733e-02 6.8621141809522487e-03 0
2.0410060979302695e-02 -7.3820987082178699e-03 0
1.6401067518140446e-02 -6.7937113756785855e-03 0
2.9469970021779208e-02 8.4949185614111508e-03 0
2.4815010789544414e-02 8.0074347166703697e-03 0
2.9495570121365035e-02 -8.3753395726214944e-03 0
2.4791873489538430e-02 -7.9270770623317555e-03 0
3.9545576667137622e-02 9.1489629490895744e-03 0
3.4409243146276740e-02 8.8873348702612140e-03 0
3.9554345754714733e-02 -8.8416041765510857e-03 0
3.4459358643742583e-02 -8.6682074636034619e-03 0
4.9811670239435765e-02 9.3012709109630276e-03 0
4.4701610071527911e-02 9.2591809618821838e-03 0
4.9844010279254947e-02 -8.9294396693874387e-03 0
4.4689752963205126e-02 -8.9206429746622184e-03 0
6.0020773414046991e-02 9.4463050636767222e-03 0
5.4891365995028127e-02 9.3619561004176077e-03 0
6.0047643769224543e-02 -8.8675767465226825e-03 0
5.4962737071197129e-02 -8.8950837864589533e-03 0
7.0342821543463913e-02 9.4455703464583207e-03 0
6.5194153776851449e-02 9.4826419681041160e-03 0
7.0377371040436676e-02 -8.7987738649393347e-03 0
6.5170758981475729e-02 -8.8603849037989582e-03 0
8.0484109552903499e-02 9.2016979115296053e-03 0
7.5456351441777980e-02 9.3432743317258329e-03 0
8.0455822123871590e-02 -8.3426391416704746e-03 0
7.5523624453929378e-02 -8.5961008123294387e-03 0
9.0014679916212037e-02 8.8713709376035694e-03 0
8.5350564926231692e-02 9.0303767692790880e-03 0
9.0024309542235503e-02 -7.8943285651228278e-03 0
8.5276224243590465e-02 -8.1219394078456721e-03 0
9.8990882171645478e-02 8.7396340285055031e-03 0
9.4531170894313760e-02 8.7785749808693449e-03 0
9.9012447251704883e-02 -7.4982111305543150e-03 0
9.4590885352650672e-02 -7.6619122223309365e-03 0
1.0780000632751738e-01 8.7347057684602249e-03 0
1.0341841205784601e-01 8.7244333211082149e-03 0
1.0783637238308974e-01 -7.4276900520296018e-03 0
1.0341895488347862e-01 -7.4344897480302062e-03 0
1.1665649585905712e-01 8.8931541028341287e-03 0
1.1218135361497525e-01 8.8036515404523973e-03 0
1.1673158195997257e-01 -7.5200968196998119e-03 0
1.1227069325959069e-01 -7.4583634179016395e-03 0
1.2583249553770903e-01 9.0565952416393515e-03 0
1.2120791116758073e-01 8.9802224486873992e-03 0
1.2587771057862260e-01 -7.7267206577287667e-03 0
1.2123705196993811e-01 -7.6256996693251037e-03 0
1.3519918961917887e-01 9.0643241446034060e-03 0
1.3053102808134040e-01 9.0820157692568272e-03 0
1.3529778958503916e-01 -7.6478531271790030e-03 0
1.3062192536302775e-01 -7.7229298716809600e-03 0
1.4447462944682524e-01 9.0418322678191988e-03 0
1.3983943160839782e-01 9.0447617144943544e-03 0
1.4449286710347958e-01 -7.6405483378056624e-03 0
1.3987821947741619e-01 -7.6143331984589186e-03 0
1.5369162073218468e-01 9.0304459110262143e-03 0
1.5375706543001894e-01 3.4853568447173458e-03 0
1.4908832831587848e-01 9.0353359546691478e-03 0
1.5370963191437653e-01 6.2577955430008787e-03 0
1.5387288231175006e-01 -2.0530174885612265e-03 0
1.5381597650749645e-01 7.2186416206813952e-04 0
1.5391667537920295e-01 -7.6872548200574656e-03 0
1.4919760105977686e-01 -7.6778251836948103e-03 0
1.5390846442150524e-01 -4.8620342927485106e-03 0

VECTORS Stress float
1.3210534509744161e+02 -2.8836975316147871e+01 0
1.2248105378285740e+02 -2.2443975698529215e+00 0
1.2483561970861057e+02 -7.3228904763067071e+00 0
3.7744395507443826e+01 -2.4449637590679433e+01 0
2.6707111395696824e+01 2.5092981575848405e+00 0
2.9389659816273454e+01 -3.7369258210288265e+00 0
1.2405374390939326e+02 -1.2071226860056370e+01 0
1.2315897565584628e+02 -6.8461682453318105e+00 0
2.8263540708993162e+01 -3.2760390365901397e+00 0
2.7332818854997424e+01 1.4730409102519104e-03 0
1.2353122834140514e+02 -1.5336418183994265e+01 0
1.2387626947201281e+02 -1.4065896377168936e+01 0
2.8070863015401429e+01 -3.6535665856802950e+00 0
2.8252729433615304e+01 -3.7277801011772951e+00 0
1.2277485304790011e+02 -1.8189583619461242e+01 0
1.2313038665967760e+02 -1.6724409437767964e+01 0
2.8477493126501230e+01 -4.3163174392368795e+00 0
2.8228336330413249e+01 -3.9001481448580479e+00 0
1.2144072674290921e+02 -2.0647931628405537e+01 0
1.2219349331165495e+02 -1.9519727079073363e+01 0
2.9309574795688555e+01 -5.0812039580856947e+00 0
2.8853007791562650e+01 -4.7336681010390969e+00 0
1.1970360555101362e+02 -2.1700727098835884e+01 0
1.2064737109986883e+02 -2.1450583727194633e+01 0
3.0645503247881020e+01 -5.5892592531051015e+00 0
2.9856359513022696e+01 -5.3623227465245389e+00 0
1.1765362206022293e+02 -2.1566878095766029e+01 0
1.1876896023822667e+02 -2.1728596513255404e+01 0
3.2533301192567066e+01 -5.8969188625611313e+00 0
3.1487166654039402e+01 -5.7377677299216518e+00 0
1.1510387712076511e+02 -2.1116255922114590e+01 0
1.1645399517374990e+02 -2.1333479389224514e+01 0
3.4772073085599288e+01 -6.2674979678795779e+00 0
3.3633641732600822e+01 -6.0570028984819597e+00 0
1.1194217014388732e+02 -2.0574530473936832e+01 0
1.1355026602342633e+02 -2.0901806967977883e+01 0
3.7176121897116836e+01 -6.7247399966171066e+00 0
3.5974649691579685e+01 -6.5309106026604056e+00 0
1.0840174054322536e+02 -1.9184713513762674e+01 0
1.1019993170281147e+02 -1.9968401104848205e+01 0
3.9879820179270538e+01 -6.8263144433795091e+00 0
3.8529875297440327e+01 -6.8259733390235411e+00 0
1.0443597240538250e+02 -1.7260965844592381e+01 0
1.0649318436934212e+02 -1.8259035590714515e+01 0
4.2581467873270661e+01 -6.8484861689487602e+00 0
4.1248274721997419e+01 -6.8278183278036124e+00 0
9.9591842240437302e+01 -1.5708095139630586e+01 0
1.0217129784637858e+02 -1.6360492084287525e+01 0
4.4970865019277490e+01 -7.0056264765786551e+00 0
4.3816002031521080e+01 -6.8908186807966985e+00 0
9.3461650334066746e+01 -1.4564797644006021e+01 0
9.6713093815015370e+01 -1.5102835839725010e+01 0
4.6857363698123940e+01 -7.2513576904432426e+00 0
4.5966593288922624e+01 -7.1157953070445004e+00 0
8.5661870290597022e+01 -1.3739597410440229e+01 0
8.9798336408872046e+01 -1.4038104975173106e+01 0
4.8213189839716797e+01 -7.7540903027729691e+00 0
4.7591357704097817e+01 -7.3921656795344219e+00 0
7.5651335510969545e+01 -1.2365037205578393e+01 0
8.0970125976058256e+01 -1.3523754327382019e+01 0
4.8827028203437770e+01 -8.0460579582264451e+00 0
4.8705441532787361e+01 -8.2379987162500434e+00 0
6.2743671618099690e+01 -8.0268705836402603e+00 0
6.9652879552607047e+01 -9.3513143228179771e+00 0
4.8482516184198694e+01 -6.4566668302264816e+00 0
4.8402445663136291e+01 -6.5915686929551711e+00 0
4.4381027744359983e+01 -2.4379046538436782e+01 0
5.4693402323350988e+01 -1.7524739778893000e+01 0
5.5168130126873095e+01 -1.9830972920354455e+01 0
5.2196472176986283e+01 -1.4170056483173987e+01 0
1.7140133345565488e+01 9.4399538836751589e+01 0
1.5133266584142035e+01 9.1673738927564912e+01 0
3.1642521591911184e+01 7.7517096526440561e+00 0
1.6705072885895518e+01 9.9652196946193300e+01 0
1.1376227955954647e+01 6.9601246971387909e+01 0
1.3216394469165259e+01 7.9816079791674326e+01 0
1.1838661657961438e+01 5.6783857885496346e+01 0
4.4084882169693508e+01 -3.3523351398338974e-01 0
1.0264938787023894e+01 6.1626826084132354e+01 0

