# vtk DataFile Version 2.0

ASCII

DATASET UNSTRUCTURED_GRID

POINTS 79 float 

-5.0000000000000003e-02  0.0000000000000000e+00  0.0000000000000000e+00
-5.0000000000000003e-02  5.5555555555555552e-02  0.0000000000000000e+00
-5.0000000000000003e-02  2.7777777777777776e-02  0.0000000000000000e+00
5.0000000000000003e-02  0.0000000000000000e+00  0.0000000000000000e+00
5.0000000000000003e-02  5.5555555555555552e-02  0.0000000000000000e+00
5.0000000000000003e-02  2.7777777777777776e-02  0.0000000000000000e+00
-5.0000000000000003e-02  1.1111111111111110e-01  0.0000000000000000e+00
-5.0000000000000003e-02  8.3333333333333329e-02  0.0000000000000000e+00
5.0000000000000003e-02  1.1111111111111110e-01  0.0000000000000000e+00
5.0000000000000003e-02  8.3333333333333329e-02  0.0000000000000000e+00
-5.0000000000000003e-02  1.6666666666666666e-01  0.0000000000000000e+00
-5.0000000000000003e-02  1.3888888888888890e-01  0.0000000000000000e+00
5.0000000000000003e-02  1.6666666666666666e-01  0.0000000000000000e+00
5.0000000000000003e-02  1.3888888888888890e-01  0.0000000000000000e+00
-5.0000000000000003e-02  2.2222222222222221e-01  0.0000000000000000e+00
-5.0000000000000003e-02  1.9444444444444442e-01  0.0000000000000000e+00
5.0000000000000003e-02  2.2222222222222221e-01  0.0000000000000000e+00
5.0000000000000003e-02  1.9444444444444442e-01  0.0000000000000000e+00
-5.0000000000000003e-02  2.7777777777777779e-01  0.0000000000000000e+00
-5.0000000000000003e-02  2.5000000000000000e-01  0.0000000000000000e+00
5.0000000000000003e-02  2.7777777777777779e-01  0.0000000000000000e+00
5.0000000000000003e-02  2.5000000000000000e-01  0.0000000000000000e+00
-5.0000000000000003e-02  3.3333333333333331e-01  0.0000000000000000e+00
-5.0000000000000003e-02  3.0555555555555558e-01  0.0000000000000000e+00
5.0000000000000003e-02  3.3333333333333331e-01  0.0000000000000000e+00
5.0000000000000003e-02  3.0555555555555558e-01  0.0000000000000000e+00
-5.0000000000000003e-02  3.8888888888888884e-01  0.0000000000000000e+00
-5.0000000000000003e-02  3.6111111111111105e-01  0.0000000000000000e+00
5.0000000000000003e-02  3.8888888888888884e-01  0.0000000000000000e+00
5.0000000000000003e-02  3.6111111111111105e-01  0.0000000000000000e+00
-5.0000000000000003e-02  4.4444444444444442e-01  0.0000000000000000e+00
-5.0000000000000003e-02  4.1666666666666663e-01  0.0000000000000000e+00
5.0000000000000003e-02  4.4444444444444442e-01  0.0000000000000000e+00
5.0000000000000003e-02  4.1666666666666663e-01  0.0000000000000000e+00
-5.0000000000000003e-02  5.0000000000000000e-01  0.0000000000000000e+00
-5.0000000000000003e-02  4.7222222222222221e-01  0.0000000000000000e+00
5.0000000000000003e-02  5.0000000000000000e-01  0.0000000000000000e+00
5.0000000000000003e-02  4.7222222222222221e-01  0.0000000000000000e+00
-5.0000000000000003e-02  5.5555555555555558e-01  0.0000000000000000e+00
-5.0000000000000003e-02  5.2777777777777779e-01  0.0000000000000000e+00
5.0000000000000003e-02  5.5555555555555558e-01  0.0000000000000000e+00
5.0000000000000003e-02  5.2777777777777779e-01  0.0000000000000000e+00
-5.0000000000000003e-02  6.1111111111111105e-01  0.0000000000000000e+00
-5.0000000000000003e-02  5.8333333333333326e-01  0.0000000000000000e+00
5.0000000000000003e-02  6.1111111111111105e-01  0.0000000000000000e+00
5.0000000000000003e-02  5.8333333333333326e-01  0.0000000000000000e+00
-5.0000000000000003e-02  6.6666666666666663e-01  0.0000000000000000e+00
-5.0000000000000003e-02  6.3888888888888884e-01  0.0000000000000000e+00
5.0000000000000003e-02  6.6666666666666663e-01  0.0000000000000000e+00
5.0000000000000003e-02  6.3888888888888884e-01  0.0000000000000000e+00
-5.0000000000000003e-02  7.2222222222222221e-01  0.0000000000000000e+00
-5.0000000000000003e-02  6.9444444444444442e-01  0.0000000000000000e+00
5.0000000000000003e-02  7.2222222222222221e-01  0.0000000000000000e+00
5.0000000000000003e-02  6.9444444444444442e-01  0.0000000000000000e+00
-5.0000000000000003e-02  7.7777777777777768e-01  0.0000000000000000e+00
-5.0000000000000003e-02  7.5000000000000000e-01  0.0000000000000000e+00
5.0000000000000003e-02  7.7777777777777768e-01  0.0000000000000000e+00
5.0000000000000003e-02  7.5000000000000000e-01  0.0000000000000000e+00
-5.0000000000000003e-02  8.3333333333333326e-01  0.0000000000000000e+00
-5.0000000000000003e-02  8.0555555555555547e-01  0.0000000000000000e+00
5.0000000000000003e-02  8.3333333333333326e-01  0.0000000000000000e+00
5.0000000000000003e-02  8.0555555555555547e-01  0.0000000000000000e+00
-5.0000000000000003e-02  8.8888888888888884e-01  0.0000000000000000e+00
-5.0000000000000003e-02  8.6111111111111105e-01  0.0000000000000000e+00
5.0000000000000003e-02  8.8888888888888884e-01  0.0000000000000000e+00
5.0000000000000003e-02  8.6111111111111105e-01  0.0000000000000000e+00
-5.0000000000000003e-02  9.4444444444444442e-01  0.0000000000000000e+00
-5.0000000000000003e-02  9.1666666666666663e-01  0.0000000000000000e+00
5.0000000000000003e-02  9.4444444444444442e-01  0.0000000000000000e+00
5.0000000000000003e-02  9.1666666666666663e-01  0.0000000000000000e+00
-5.0000000000000003e-02  1.0000000000000000e+00  0.0000000000000000e+00
-1.6666666666666670e-02  1.0000000000000000e+00  0.0000000000000000e+00
-5.0000000000000003e-02  9.7222222222222221e-01  0.0000000000000000e+00
-3.3333333333333340e-02  1.0000000000000000e+00  0.0000000000000000e+00
1.6666666666666663e-02  1.0000000000000000e+00  0.0000000000000000e+00
-3.4694469519536142e-18  1.0000000000000000e+00  0.0000000000000000e+00
5.0000000000000003e-02  1.0000000000000000e+00  0.0000000000000000e+00
5.0000000000000003e-02  9.7222222222222221e-01  0.0000000000000000e+00
3.3333333333333333e-02  1.0000000000000000e+00  0.0000000000000000e+00

CELLS 0 0


CELL_TYPES 0


POINT_DATA 79

VECTORS VertexNormals float

0.0000000000000000e+00 0.0000000000000000e+00 0
0.0000000000000000e+00 0.0000000000000000e+00 0
0.0000000000000000e+00 0.0000000000000000e+00 0
0.0000000000000000e+00 0.0000000000000000e+00 0
0.0000000000000000e+00 0.0000000000000000e+00 0
0.0000000000000000e+00 0.0000000000000000e+00 0
0.0000000000000000e+00 0.0000000000000000e+00 0
0.0000000000000000e+00 0.0000000000000000e+00 0
0.0000000000000000e+00 0.0000000000000000e+00 0
0.0000000000000000e+00 0.0000000000000000e+00 0
0.0000000000000000e+00 0.0000000000000000e+00 0
0.0000000000000000e+00 0.0000000000000000e+00 0
0.0000000000000000e+00 0.0000000000000000e+00 0
0.0000000000000000e+00 0.0000000000000000e+00 0
0.0000000000000000e+00 0.0000000000000000e+00 0
0.0000000000000000e+00 0.0000000000000000e+00 0
0.0000000000000000e+00 0.0000000000000000e+00 0
0.0000000000000000e+00 0.0000000000000000e+00 0
0.0000000000000000e+00 0.0000000000000000e+00 0
0.0000000000000000e+00 0.0000000000000000e+00 0
0.0000000000000000e+00 0.0000000000000000e+00 0
0.0000000000000000e+00 0.0000000000000000e+00 0
0.0000000000000000e+00 0.0000000000000000e+00 0
0.0000000000000000e+00 0.0000000000000000e+00 0
0.0000000000000000e+00 0.0000000000000000e+00 0
0.0000000000000000e+00 0.0000000000000000e+00 0
0.0000000000000000e+00 0.0000000000000000e+00 0
0.0000000000000000e+00 0.0000000000000000e+00 0
0.0000000000000000e+00 0.0000000000000000e+00 0
0.0000000000000000e+00 0.0000000000000000e+00 0
0.0000000000000000e+00 0.0000000000000000e+00 0
0.0000000000000000e+00 0.0000000000000000e+00 0
0.0000000000000000e+00 0.0000000000000000e+00 0
0.0000000000000000e+00 0.0000000000000000e+00 0
0.0000000000000000e+00 0.0000000000000000e+00 0
0.0000000000000000e+00 0.0000000000000000e+00 0
0.0000000000000000e+00 0.0000000000000000e+00 0
0.0000000000000000e+00 0.0000000000000000e+00 0
0.0000000000000000e+00 0.0000000000000000e+00 0
0.0000000000000000e+00 0.0000000000000000e+00 0
0.0000000000000000e+00 0.0000000000000000e+00 0
0.0000000000000000e+00 0.0000000000000000e+00 0
0.0000000000000000e+00 0.0000000000000000e+00 0
0.0000000000000000e+00 0.0000000000000000e+00 0
0.0000000000000000e+00 0.0000000000000000e+00 0
0.0000000000000000e+00 0.0000000000000000e+00 0
0.0000000000000000e+00 0.0000000000000000e+00 0
0.0000000000000000e+00 0.0000000000000000e+00 0
0.0000000000000000e+00 0.0000000000000000e+00 0
0.0000000000000000e+00 0.0000000000000000e+00 0
0.0000000000000000e+00 0.0000000000000000e+00 0
0.0000000000000000e+00 0.0000000000000000e+00 0
0.0000000000000000e+00 0.0000000000000000e+00 0
0.0000000000000000e+00 0.0000000000000000e+00 0
0.0000000000000000e+00 0.0000000000000000e+00 0
0.0000000000000000e+00 0.0000000000000000e+00 0
0.0000000000000000e+00 0.0000000000000000e+00 0
0.0000000000000000e+00 0.0000000000000000e+00 0
0.0000000000000000e+00 0.0000000000000000e+00 0
0.0000000000000000e+00 0.0000000000000000e+00 0
0.0000000000000000e+00 0.0000000000000000e+00 0
0.0000000000000000e+00 0.0000000000000000e+00 0
0.0000000000000000e+00 0.0000000000000000e+00 0
0.0000000000000000e+00 0.0000000000000000e+00 0
0.0000000000000000e+00 0.0000000000000000e+00 0
0.0000000000000000e+00 0.0000000000000000e+00 0
0.0000000000000000e+00 0.0000000000000000e+00 0
0.0000000000000000e+00 0.0000000000000000e+00 0
0.0000000000000000e+00 0.0000000000000000e+00 0
0.0000000000000000e+00 0.0000000000000000e+00 0
0.0000000000000000e+00 0.0000000000000000e+00 0
0.0000000000000000e+00 0.0000000000000000e+00 0
0.0000000000000000e+00 0.0000000000000000e+00 0
0.0000000000000000e+00 0.0000000000000000e+00 0
0.0000000000000000e+00 0.0000000000000000e+00 0
0.0000000000000000e+00 0.0000000000000000e+00 0
0.0000000000000000e+00 0.0000000000000000e+00 0
0.0000000000000000e+00 0.0000000000000000e+00 0
0.0000000000000000e+00 0.0000000000000000e+00 0

VECTORS Displacement float
0.0000000000000000e+00 0.0000000000000000e+00 0
1.5972830493653110e-03 1.6560465997322962e-03 0
6.9468377851883379e-04 9.2080171861065455e-04 0
0.0000000000000000e+00 0.0000000000000000e+00 0
1.4304857479666541e-03 -1.4809107745226034e-03 0
5.9362945460888496e-04 -8.0565682257024854e-04 0
4.1971787383805253e-03 2.7174901762974553e-03 0
2.7785912535207139e-03 2.2273606925861276e-03 0
4.1109820516296580e-03 -2.4918516229344586e-03 0
2.6285468797664930e-03 -2.0301436232901884e-03 0
7.8338669982415780e-03 3.4479539958546255e-03 0
5.9128600630907052e-03 3.1290616518153385e-03 0
7.6486091019255902e-03 -3.1816609053343502e-03 0
5.8046392495501318e-03 -2.8650147129946004e-03 0
1.1930048020465437e-02 3.8256682228964200e-03 0
9.8407911651766638e-03 3.6653373395891895e-03 0
1.1827794562948248e-02 -3.5399848092206531e-03 0
9.6765665709808817e-03 -3.4148204195927354e-03 0
1.6309008163180649e-02 3.9745956012507645e-03 0
1.4101886385558423e-02 3.9290052019890238e-03 0
1.6144955036387819e-02 -3.5832298093628591e-03 0
1.3983052573408355e-02 -3.5803922909866991e-03 0
2.0627017355372548e-02 3.8186684648870589e-03 0
1.8515366503465643e-02 3.9334628043399700e-03 0
2.0434384700059309e-02 -3.3415521751617248e-03 0
1.8330134516753398e-02 -3.5058222343650218e-03 0
2.4519769800445457e-02 3.5084689511621038e-03 0
2.2611339585080308e-02 3.6757385113800377e-03 0
2.4336902899834076e-02 -2.9116566932352308e-03 0
2.2419840287699902e-02 -3.1399655473609246e-03 0
2.7911186076311857e-02 2.9779290309148530e-03 0
2.6319383299838378e-02 3.2676333535777671e-03 0
2.7754175862232635e-02 -2.2688693919949827e-03 0
2.6150627985523773e-02 -2.6112841588949221e-03 0
3.0522215018613616e-02 2.4113931462058733e-03 0
2.9291725105972791e-02 2.6929788263590848e-03 0
3.0373540874736898e-02 -1.6270156045579622e-03 0
2.9140894350741655e-02 -1.9411282044518470e-03 0
3.2452955326378659e-02 1.7288159995155522e-03 0
3.1600972024300865e-02 2.0896623045128346e-03 0
3.2306495695117524e-02 -9.0117058245556454e-04 0
3.1452507220819638e-02 -1.2813689801582995e-03 0
3.3416329109631243e-02 1.0571481367013503e-03 0
3.3042592239485941e-02 1.3717199462039815e-03 0
3.3281768791425942e-02 -1.9239628570109625e-04 0
3.2901022005413769e-02 -5.2558213160676479e-04 0
3.3782298343356873e-02 5.3092276586738445e-04 0
3.3651370495633603e-02 7.9224571909503147e-04 0
3.3661489515512177e-02 3.5033907691072396e-04 0
3.3525140718919197e-02 8.7589194168342162e-05 0
3.3639219224760909e-02 -8.7258395007581925e-05 0
3.3791211883800278e-02 2.3813386925699640e-04 0
3.3531107888509160e-02 9.1014245232786122e-04 0
3.3674408006479528e-02 6.2139143676936406e-04 0
3.2708844019031284e-02 -7.2944244282337699e-04 0
3.3280152153015420e-02 -4.2592428735344870e-04 0
3.2621588244662873e-02 1.5398235267387694e-03 0
3.3181951634393421e-02 1.2248316670500658e-03 0
3.1164058920968067e-02 -1.2588966273572204e-03 0
3.1992404919132189e-02 -9.8674218121524277e-04 0
3.1060713333577822e-02 2.1152124853850282e-03 0
3.1909069408347764e-02 1.8328744563078988e-03 0
2.8993653005957083e-02 -1.8915012490441341e-03 0
3.0181503091270358e-02 -1.5749774258603244e-03 0
2.8880122703279536e-02 2.6518648139777111e-03 0
3.0046876765262194e-02 2.3860747080743021e-03 0
2.6023519394071243e-02 -2.3523913151770877e-03 0
2.7583904470653307e-02 -2.1647192090705732e-03 0
2.5972715097806701e-02 3.1965866008308035e-03 0
2.7542065027908964e-02 2.9361919106185514e-03 0
2.2825356257028764e-02 -2.4014289177926801e-03 0
2.2762978004989026e-02 -5.0175695703721479e-04 0
2.4417720219801486e-02 -2.4092720715633707e-03 0
2.2804450033436126e-02 -1.4508332075529931e-03 0
2.2645854020083081e-02 1.3835682064274608e-03 0
2.2711100655696308e-02 4.3490657360891632e-04 0
2.2563468217416546e-02 3.3993805305509847e-03 0
2.4271454940163951e-02 3.3473495200004514e-03 0
2.2586766127475292e-02 2.3782377592708936e-03 0

VECTORS Stress float
1.3208214538644384e+02 -4.1571453537589321e+01 0
1.0656362217086610e+02 2.7032758061177464e+00 0
1.1273633548666091e+02 -7.3957385982582462e+00 0
1.1357787928504206e+02 -4.0243975183397502e+01 0
8.6285350787308943e+01 3.3253212302720687e+00 0
9.2847646264460479e+01 -6.6374997997181477e+00 0
1.1079504490013413e+02 -6.9483219822570668e+00 0
1.0836943576538228e+02 -1.5450676741812064e+00 0
9.0671954389994468e+01 -6.0670573475301204e+00 0
8.8103735621247097e+01 -8.4168194140759844e-01 0
1.0992484960151995e+02 -7.6379431142779701e+00 0
1.1057052425203057e+02 -7.7625002846485387e+00 0
9.0382338300682918e+01 -6.3218419802093031e+00 0
9.0740989971905648e+01 -6.6346168426229006e+00 0
1.0919154705522590e+02 -8.2363663725244542e+00 0
1.0945211920704672e+02 -7.8508117168164180e+00 0
9.1004388096511093e+01 -6.8903559924773319e+00 0
9.0573398791813702e+01 -6.4876758894044375e+00 0
1.0826445476077248e+02 -8.4599787266889486e+00 0
1.0878764453477079e+02 -8.4548266380446755e+00 0
9.2209359924553112e+01 -7.1217362240890765e+00 0
9.1569692841221340e+01 -7.1144267627106004e+00 0
1.0709079778756875e+02 -7.9287292518450911e+00 0
1.0774308848587862e+02 -8.3073015981214944e+00 0
9.3917016257974865e+01 -6.8182264963774557e+00 0
9.2954318151736771e+01 -7.0325194355039500e+00 0
1.0572738098003646e+02 -6.8791666051038654e+00 0
1.0647838659238381e+02 -7.4447448449157818e+00 0
9.6192993286104922e+01 -6.1460746733200331e+00 0
9.4953692833640716e+01 -6.5342399034509668e+00 0
1.0408549429071932e+02 -5.5958563987784800e+00 0
1.0493943025369572e+02 -6.2518459719711075e+00 0
9.8941807622403232e+01 -5.1937907790115219e+00 0
9.7518026427382836e+01 -5.6904512223500490e+00 0
1.0209449994219648e+02 -4.1463365716355938e+00 0
1.0311120379538914e+02 -4.9092261569025482e+00 0
1.0201373070679497e+02 -4.0201030470421344e+00 0
1.0047935220582468e+02 -4.6465373721289041e+00 0
9.9681828045927290e+01 -2.4375535219796518e+00 0
1.0093956553882258e+02 -3.3119373491444222e+00 0
1.0517154275867250e+02 -2.4861682637317699e+00 0
1.0362759482390997e+02 -3.2772461778169628e+00 0
9.6694535016020907e+01 -1.0153791757164470e+00 0
9.8279498067667788e+01 -1.6739570096176166e+00 0
1.0797907844332526e+02 -1.1093612696024522e+00 0
1.0663984888596934e+02 -1.7616934928423831e+00 0
9.2919206247836030e+01 -5.1266244099110736e-02 0
9.4914078713710495e+01 -4.5136101785124083e-01 0
1.1010551492413572e+02 -8.3199746805433961e-02 0
1.0913306075530889e+02 -5.3561570481043930e-01 0
8.8187550871109124e+01 1.0476156128140346e+00 0
9.0656907118832592e+01 4.4223372008725192e-01 0
1.1135948130299744e+02 1.2027628593925286e+00 0
1.1083400945932966e+02 4.7469744879686715e-01 0
8.2150697398747241e+01 1.8889393624663171e+00 0
8.5366774915514185e+01 1.7116648779634573e+00 0
1.1180477180180893e+02 2.5225526692928071e+00 0
1.1163207150756551e+02 2.0389266595945159e+00 0
7.3593946704125983e+01 2.7072743842695886e+00 0
7.8378452093840508e+01 1.6885288224873207e+00 0
1.1065781923091672e+02 3.8738746935236321e+00 0
1.1174783531370204e+02 2.7323949961292655e+00 0
6.0291781667928291e+01 6.6771942572146372e+00 0
6.7473723574503310e+01 6.2845634468468106e+00 0
1.0628513992099536e+02 7.5243237431930510e+00 0
1.0787442705814524e+02 6.8142236052368617e+00 0
4.1288664623384648e+01 -2.5424086313937465e+01 0
5.3063573568429781e+01 -1.1059523059215948e+01 0
1.2032784396611983e+02 -1.2780816740412106e+01 0
1.1435897855934880e+02 -4.2792334601470259e+00 0
-1.8008366226114170e+01 1.5646385391023546e+02 0
-7.3733024074219315e+00 1.6170826918869363e+02 0
1.8792128369282423e+01 2.1810786524634686e+01 0
-9.3312012727987153e+00 1.6802902613116260e+02 0
-9.6738688064073557e+00 1.3321007834694103e+02 0
-8.2764274805276372e+00 1.4852430123665556e+02 0
7.4236325457837822e+00 1.0989129495788275e+02 0
8.9916589546668462e+01 1.8819890623632006e+01 0
-7.2410868337488239e+00 1.1929785505661039e+02 0

