# vtk DataFile Version 2.0

ASCII

DATASET UNSTRUCTURED_GRID

POINTS 79 float 

-5.0000000000000003e-02  0.0000000000000000e+00  0.0000000000000000e+00
-5.0000000000000003e-02  5.5555555555555552e-02  0.0000000000000000e+00
-5.0000000000000003e-02  2.7777777777777776e-02  0.0000000000000000e+00
5.0000000000000003e-02  0.0000000000000000e+00  0.0000000000000000e+00
5.0000000000000003e-02  5.5555555555555552e-02  0.0000000000000000e+00
5.0000000000000003e-02  2.7777777777777776e-02  0.0000000000000000e+00
-5.0000000000000003e-02  1.1111111111111110e-01  0.0000000000000000e+00
-5.0000000000000003e-02  8.3333333333333329e-02  0.0000000000000000e+00
5.0000000000000003e-02  1.1111111111111110e-01  0.0000000000000000e+00
5.0000000000000003e-02  8.3333333333333329e-02  0.0000000000000000e+00
-5.0000000000000003e-02  1.6666666666666666e-01  0.0000000000000000e+00
-5.0000000000000003e-02  1.3888888888888890e-01  0.0000000000000000e+00
5.0000000000000003e-02  1.6666666666666666e-01  0.0000000000000000e+00
5.0000000000000003e-02  1.3888888888888890e-01  0.0000000000000000e+00
-5.0000000000000003e-02  2.2222222222222221e-01  0.0000000000000000e+00
-5.0000000000000003e-02  1.9444444444444442e-01  0.0000000000000000e+00
5.0000000000000003e-02  2.2222222222222221e-01  0.0000000000000000e+00
5.0000000000000003e-02  1.9444444444444442e-01  0.0000000000000000e+00
-5.0000000000000003e-02  2.7777777777777779e-01  0.0000000000000000e+00
-5.0000000000000003e-02  2.5000000000000000e-01  0.0000000000000000e+00
5.0000000000000003e-02  2.7777777777777779e-01  0.0000000000000000e+00
5.0000000000000003e-02  2.5000000000000000e-01  0.0000000000000000e+00
-5.0000000000000003e-02  3.3333333333333331e-01  0.0000000000000000e+00
-5.0000000000000003e-02  3.0555555555555558e-01  0.0000000000000000e+00
5.0000000000000003e-02  3.3333333333333331e-01  0.0000000000000000e+00
5.0000000000000003e-02  3.0555555555555558e-01  0.0000000000000000e+00
-5.0000000000000003e-02  3.8888888888888884e-01  0.0000000000000000e+00
-5.0000000000000003e-02  3.6111111111111105e-01  0.0000000000000000e+00
5.0000000000000003e-02  3.8888888888888884e-01  0.0000000000000000e+00
5.0000000000000003e-02  3.6111111111111105e-01  0.0000000000000000e+00
-5.0000000000000003e-02  4.4444444444444442e-01  0.0000000000000000e+00
-5.0000000000000003e-02  4.1666666666666663e-01  0.0000000000000000e+00
5.0000000000000003e-02  4.4444444444444442e-01  0.0000000000000000e+00
5.0000000000000003e-02  4.1666666666666663e-01  0.0000000000000000e+00
-5.0000000000000003e-02  5.0000000000000000e-01  0.0000000000000000e+00
-5.0000000000000003e-02  4.7222222222222221e-01  0.0000000000000000e+00
5.0000000000000003e-02  5.0000000000000000e-01  0.0000000000000000e+00
5.0000000000000003e-02  4.7222222222222221e-01  0.0000000000000000e+00
-5.0000000000000003e-02  5.5555555555555558e-01  0.0000000000000000e+00
-5.0000000000000003e-02  5.2777777777777779e-01  0.0000000000000000e+00
5.0000000000000003e-02  5.5555555555555558e-01  0.0000000000000000e+00
5.0000000000000003e-02  5.2777777777777779e-01  0.0000000000000000e+00
-5.0000000000000003e-02  6.1111111111111105e-01  0.0000000000000000e+00
-5.0000000000000003e-02  5.8333333333333326e-01  0.0000000000000000e+00
5.0000000000000003e-02  6.1111111111111105e-01  0.0000000000000000e+00
5.0000000000000003e-02  5.8333333333333326e-01  0.0000000000000000e+00
-5.0000000000000003e-02  6.6666666666666663e-01  0.0000000000000000e+00
-5.0000000000000003e-02  6.3888888888888884e-01  0.0000000000000000e+00
5.0000000000000003e-02  6.6666666666666663e-01  0.0000000000000000e+00
5.0000000000000003e-02  6.3888888888888884e-01  0.0000000000000000e+00
-5.0000000000000003e-02  7.2222222222222221e-01  0.0000000000000000e+00
-5.0000000000000003e-02  6.9444444444444442e-01  0.0000000000000000e+00
5.0000000000000003e-02  7.2222222222222221e-01  0.0000000000000000e+00
5.0000000000000003e-02  6.9444444444444442e-01  0.0000000000000000e+00
-5.0000000000000003e-02  7.7777777777777768e-01  0.0000000000000000e+00
-5.0000000000000003e-02  7.5000000000000000e-01  0.0000000000000000e+00
5.0000000000000003e-02  7.7777777777777768e-01  0.0000000000000000e+00
5.0000000000000003e-02  7.5000000000000000e-01  0.0000000000000000e+00
-5.0000000000000003e-02  8.3333333333333326e-01  0.0000000000000000e+00
-5.0000000000000003e-02  8.0555555555555547e-01  0.0000000000000000e+00
5.0000000000000003e-02  8.3333333333333326e-01  0.0000000000000000e+00
5.0000000000000003e-02  8.0555555555555547e-01  0.0000000000000000e+00
-5.0000000000000003e-02  8.8888888888888884e-01  0.0000000000000000e+00
-5.0000000000000003e-02  8.6111111111111105e-01  0.0000000000000000e+00
5.0000000000000003e-02  8.8888888888888884e-01  0.0000000000000000e+00
5.0000000000000003e-02  8.6111111111111105e-01  0.0000000000000000e+00
-5.0000000000000003e-02  9.4444444444444442e-01  0.0000000000000000e+00
-5.0000000000000003e-02  9.1666666666666663e-01  0.0000000000000000e+00
5.0000000000000003e-02  9.4444444444444442e-01  0.0000000000000000e+00
5.0000000000000003e-02  9.1666666666666663e-01  0.0000000000000000e+00
-5.0000000000000003e-02  1.0000000000000000e+00  0.0000000000000000e+00
-1.6666666666666670e-02  1.0000000000000000e+00  0.0000000000000000e+00
-5.0000000000000003e-02  9.7222222222222221e-01  0.0000000000000000e+00
-3.3333333333333340e-02  1.0000000000000000e+00  0.0000000000000000e+00
1.6666666666666663e-02  1.0000000000000000e+00  0.0000000000000000e+00
-3.4694469519536142e-18  1.0000000000000000e+00  0.0000000000000000e+00
5.0000000000000003e-02  1.0000000000000000e+00  0.0000000000000000e+00
5.0000000000000003e-02  9.7222222222222221e-01  0.0000000000000000e+00
3.3333333333333333e-02  1.0000000000000000e+00  0.0000000000000000e+00

CELLS 0 0


CELL_TYPES 0


POINT_DATA 79

VECTORS VertexNormals float

0.0000000000000000e+00 0.0000000000000000e+00 0
0.0000000000000000e+00 0.0000000000000000e+00 0
0.0000000000000000e+00 0.0000000000000000e+00 0
0.0000000000000000e+00 0.0000000000000000e+00 0
0.0000000000000000e+00 0.0000000000000000e+00 0
0.0000000000000000e+00 0.0000000000000000e+00 0
0.0000000000000000e+00 0.0000000000000000e+00 0
0.0000000000000000e+00 0.0000000000000000e+00 0
0.0000000000000000e+00 0.0000000000000000e+00 0
0.0000000000000000e+00 0.0000000000000000e+00 0
0.0000000000000000e+00 0.0000000000000000e+00 0
0.0000000000000000e+00 0.0000000000000000e+00 0
0.0000000000000000e+00 0.0000000000000000e+00 0
0.0000000000000000e+00 0.0000000000000000e+00 0
0.0000000000000000e+00 0.0000000000000000e+00 0
0.0000000000000000e+00 0.0000000000000000e+00 0
0.0000000000000000e+00 0.0000000000000000e+00 0
0.0000000000000000e+00 0.0000000000000000e+00 0
0.0000000000000000e+00 0.0000000000000000e+00 0
0.0000000000000000e+00 0.0000000000000000e+00 0
0.0000000000000000e+00 0.0000000000000000e+00 0
0.0000000000000000e+00 0.0000000000000000e+00 0
0.0000000000000000e+00 0.0000000000000000e+00 0
0.0000000000000000e+00 0.0000000000000000e+00 0
0.0000000000000000e+00 0.0000000000000000e+00 0
0.0000000000000000e+00 0.0000000000000000e+00 0
0.0000000000000000e+00 0.0000000000000000e+00 0
0.0000000000000000e+00 0.0000000000000000e+00 0
0.0000000000000000e+00 0.0000000000000000e+00 0
0.0000000000000000e+00 0.0000000000000000e+00 0
0.0000000000000000e+00 0.0000000000000000e+00 0
0.0000000000000000e+00 0.0000000000000000e+00 0
0.0000000000000000e+00 0.0000000000000000e+00 0
0.0000000000000000e+00 0.0000000000000000e+00 0
0.0000000000000000e+00 0.0000000000000000e+00 0
0.0000000000000000e+00 0.0000000000000000e+00 0
0.0000000000000000e+00 0.0000000000000000e+00 0
0.0000000000000000e+00 0.0000000000000000e+00 0
0.0000000000000000e+00 0.0000000000000000e+00 0
0.0000000000000000e+00 0.0000000000000000e+00 0
0.0000000000000000e+00 0.0000000000000000e+00 0
0.0000000000000000e+00 0.0000000000000000e+00 0
0.0000000000000000e+00 0.0000000000000000e+00 0
0.0000000000000000e+00 0.0000000000000000e+00 0
0.0000000000000000e+00 0.0000000000000000e+00 0
0.0000000000000000e+00 0.0000000000000000e+00 0
0.0000000000000000e+00 0.0000000000000000e+00 0
0.0000000000000000e+00 0.0000000000000000e+00 0
0.0000000000000000e+00 0.0000000000000000e+00 0
0.0000000000000000e+00 0.0000000000000000e+00 0
0.0000000000000000e+00 0.0000000000000000e+00 0
0.0000000000000000e+00 0.0000000000000000e+00 0
0.0000000000000000e+00 0.0000000000000000e+00 0
0.0000000000000000e+00 0.0000000000000000e+00 0
0.0000000000000000e+00 0.0000000000000000e+00 0
0.0000000000000000e+00 0.0000000000000000e+00 0
0.0000000000000000e+00 0.0000000000000000e+00 0
0.0000000000000000e+00 0.0000000000000000e+00 0
0.0000000000000000e+00 0.0000000000000000e+00 0
0.0000000000000000e+00 0.0000000000000000e+00 0
0.0000000000000000e+00 0.0000000000000000e+00 0
0.0000000000000000e+00 0.0000000000000000e+00 0
0.0000000000000000e+00 0.0000000000000000e+00 0
0.0000000000000000e+00 0.0000000000000000e+00 0
0.0000000000000000e+00 0.0000000000000000e+00 0
0.0000000000000000e+00 0.0000000000000000e+00 0
0.0000000000000000e+00 0.0000000000000000e+00 0
0.0000000000000000e+00 0.0000000000000000e+00 0
0.0000000000000000e+00 0.0000000000000000e+00 0
0.0000000000000000e+00 0.0000000000000000e+00 0
0.0000000000000000e+00 0.0000000000000000e+00 0
0.0000000000000000e+00 0.0000000000000000e+00 0
0.0000000000000000e+00 0.0000000000000000e+00 0
0.0000000000000000e+00 0.0000000000000000e+00 0
0.0000000000000000e+00 0.0000000000000000e+00 0
0.0000000000000000e+00 0.0000000000000000e+00 0
0.0000000000000000e+00 0.0000000000000000e+00 0
0.0000000000000000e+00 0.0000000000000000e+00 0
0.0000000000000000e+00 0.0000000000000000e+00 0

VECTORS Displacement float
0.0000000000000000e+00 0.0000000000000000e+00 0
1.4829824802915915e-03 2.1672520114673337e-03 0
5.9652619609151835e-04 1.0762490820786230e-03 0
0.0000000000000000e+00 0.0000000000000000e+00 0
1.5758720318434147e-03 -2.2498465016122155e-03 0
6.6735006604585426e-04 -1.1389562755029174e-03 0
5.3481322617916893e-03 4.4320463079677869e-03 0
3.0732180462892380e-03 3.3024652406726364e-03 0
5.3622283014208016e-03 -4.6214303201542383e-03 0
3.1220386167299264e-03 -3.4180150847288341e-03 0
1.1821147509015008e-02 6.5764255536688455e-03 0
8.2659253249231963e-03 5.5346530422124892e-03 0
1.1888221683359809e-02 -6.9071453584062387e-03 0
8.3062987625835642e-03 -5.8150707865799265e-03 0
2.0736585362858936e-02 8.4454975483683054e-03 0
1.6017404017122754e-02 7.5419932116855774e-03 0
2.0688693393490613e-02 -8.8544110453980650e-03 0
1.6041702255740413e-02 -7.8992839291309614e-03 0
3.1414202035560952e-02 1.0179817665600759e-02 0
2.5852645592444067e-02 9.3077956135193280e-03 0
3.1467216474394676e-02 -1.0663575603562968e-02 0
2.5831913279070105e-02 -9.7829063880214735e-03 0
4.4132427985876854e-02 1.1947235110018562e-02 0
3.7497453863283958e-02 1.1074884191066862e-02 0
4.4031285974557723e-02 -1.2347932569068774e-02 0
3.7507627892621145e-02 -1.1500203327757570e-02 0
5.8514514214170740e-02 1.3411190862580101e-02 0
5.1194421900529911e-02 1.2702832001073763e-02 0
5.8544074441154836e-02 -1.3858853132800403e-02 0
5.1101888783988150e-02 -1.3142424040134944e-02 0
7.4467948395614519e-02 1.4852295199973713e-02 0
6.6252764850711396e-02 1.4148052583361777e-02 0
7.4431939848411677e-02 -1.5193141124505491e-02 0
6.6312112273315918e-02 -1.4533762933148821e-02 0
9.1863408204326855e-02 1.6064802815694758e-02 0
8.3027844413169544e-02 1.5474567805528371e-02 0
9.1852323727804858e-02 -1.6475781328541786e-02 0
8.2935542097864412e-02 -1.5850842184695159e-02 0
1.1058371971547104e-01 1.7347557607515822e-02 0
1.0101861749625531e-01 1.6694988580682954e-02 0
1.1058889045948267e-01 -1.7633561872594572e-02 0
1.0109561820438198e-01 -1.7046491013510606e-02 0
1.3076986644005251e-01 1.8592358363379323e-02 0
1.2052502390733688e-01 1.7973279864578352e-02 0
1.3072698107421990e-01 -1.8943855386434991e-02 0
1.2043500254690734e-01 -1.8285549771025721e-02 0
1.5241868206431719e-01 1.9885605400785825e-02 0
1.4136031737345367e-01 1.9250366749447044e-02 0
1.5247469005043221e-01 -2.0097960925458274e-02 0
1.4142971236368607e-01 -1.9554932301336703e-02 0
1.7535786250335017e-01 2.0688996114142232e-02 0
1.6383430557351897e-01 2.0350154504030979e-02 0
1.7529246043653701e-01 -2.0939678079933181e-02 0
1.6375976362178282e-01 -2.0553837871965748e-02 0
1.9879401196602564e-01 2.1385343757723843e-02 0
1.8697192829821038e-01 2.1019923713764561e-02 0
1.9889975747878516e-01 -2.1559984729767688e-02 0
1.8705617344779271e-01 -2.1250614393032996e-02 0
2.2324981678659533e-01 2.2007123750968645e-02 0
2.1091862106705508e-01 2.1737959457804386e-02 0
2.2320490351493283e-01 -2.2265907274813528e-02 0
2.1090507588083768e-01 -2.1923746632046014e-02 0
2.4821983977064954e-01 2.2354893865468628e-02 0
2.3566818161623049e-01 2.2210854382988025e-02 0
2.4831483250187258e-01 -2.2627471032142431e-02 0
2.3570509285610131e-01 -2.2500716739233276e-02 0
2.7340075161164390e-01 2.2367895283459040e-02 0
2.6084741391848709e-01 2.2388766932640525e-02 0
2.7342953555267829e-01 -2.2612824294838810e-02 0
2.6090860818115347e-01 -2.2636877902381704e-02 0
2.9842618966416612e-01 2.2376233707635720e-02 0
2.9840187038582316e-01 7.3591046643782590e-03 0
2.8589965707165182e-01 2.2364273763061548e-02 0
2.9841375920328939e-01 1.4856557295219725e-02 0
2.9845364857419288e-01 -7.6107187378567981e-03 0
2.9841658586150765e-01 -1.2395644977295764e-04 0
2.9851507202223471e-01 -2.2639304553667812e-02 0
2.8595974314542727e-01 -2.2624260607774300e-02 0
2.9849427518758442e-01 -1.5111292705180059e-02 0

VECTORS Stress float
1.7054572819884260e+02 -1.2465637994255124e+01 0
1.6566818449031780e+02 -5.9222198492370346e+00 0
1.6692078250679904e+02 -5.5242826440564308e+00 0
-4.8478234918935961e+01 -2.5226219210236316e+00 0
-5.4534143139230075e+01 3.4845008096976895e+00 0
-5.3094380376101071e+01 1.2580641129022576e+00 0
1.6626070613688790e+02 -1.5154429736205673e+01 0
1.6593603445754363e+02 -1.0367353239906075e+01 0
-5.3603451373907397e+01 5.1215033129162650e+00 0
-5.4170063233572300e+01 4.3995534598767110e+00 0
1.6545141189472827e+02 -2.2220336196298426e+01 0
1.6592382039707164e+02 -1.8927031831849206e+01 0
-5.3457754714236430e+01 7.7494048974993524e+00 0
-5.3471495251868184e+01 6.4596870698737989e+00 0
1.6399303309665888e+02 -2.7922904868429246e+01 0
1.6475088018091728e+02 -2.5176048332498283e+01 0
-5.2885935240420451e+01 9.7213111235119367e+00 0
-5.3176327676564902e+01 8.8138593790011850e+00 0
1.6157979363756030e+02 -3.3022373258937442e+01 0
1.6291821446728551e+02 -3.0534375006276896e+01 0
-5.1992856863441297e+01 1.1330170616166869e+01 0
-5.2470007562036812e+01 1.0545751331553737e+01 0
1.5822517494153644e+02 -3.7326631644575478e+01 0
1.6007114385552453e+02 -3.5315311974600803e+01 0
-5.0811388579504204e+01 1.2830025424198753e+01 0
-5.1495949934530081e+01 1.2091586673276220e+01 0
1.5402495684754334e+02 -4.0884728430073736e+01 0
1.5627722236880078e+02 -3.9201022886245561e+01 0
-4.9355010933665426e+01 1.3975543718558360e+01 0
-5.0158662038835992e+01 1.3521623109842354e+01 0
1.4914571789479427e+02 -4.3656108867878302e+01 0
1.5164020683531842e+02 -4.2416942101695227e+01 0
-4.7616853989206319e+01 1.4689892375365314e+01 0
-4.8524164224603588e+01 1.4341529825597274e+01 0
1.4374730793965259e+02 -4.5391501268965214e+01 0
1.4649946529229689e+02 -4.4562018706725524e+01 0
-4.5560957551935523e+01 1.5334222998387158e+01 0
-4.6584528815654423e+01 1.5017293912252580e+01 0
1.3748034075170273e+02 -4.6919968997376039e+01 0
1.4068241851419225e+02 -4.6174601599579169e+01 0
-4.3272657869578012e+01 1.5588167599877808e+01 0
-4.4415231012386172e+01 1.5461518946397403e+01 0
1.3060065098176997e+02 -4.7791226589886939e+01 0
1.3411550993902415e+02 -4.7446109499963974e+01 0
-4.0752924458030890e+01 1.5861823494422030e+01 0
-4.2046993027694938e+01 1.5718322177320472e+01 0
1.2310161285532600e+02 -4.8173205614249731e+01 0
1.2694462463799142e+02 -4.8056638796156697e+01 0
-3.8046069873587498e+01 1.5699309466534414e+01 0
-3.9435844667335758e+01 1.5918403442431437e+01 0
1.1545708684146851e+02 -4.7403553369325245e+01 0
1.1920694644158425e+02 -4.8092370724379499e+01 0
-3.5122037132152094e+01 1.5027517050943672e+01 0
-3.6609521996422252e+01 1.5457230022418329e+01 0
1.0763067068276746e+02 -4.5440993353460435e+01 0
1.1166049129112884e+02 -4.6397975774697294e+01 0
-3.2022099893004473e+01 1.4145493302571149e+01 0
-3.3583703775801354e+01 1.4580948112788933e+01 0
9.8349825578028288e+01 -4.3090508611557986e+01 0
1.0324362629601106e+02 -4.4518702118415000e+01 0
-2.8862592050022229e+01 1.3240205656378926e+01 0
-3.0453079840876697e+01 1.3691132416900944e+01 0
8.7454667731431982e+01 -3.8333371472789388e+01 0
9.2886674592269145e+01 -4.0447628213462586e+01 0
-2.5707419588249216e+01 1.1835238191892881e+01 0
-2.7302666237804388e+01 1.2527337543474674e+01 0
8.0312944374159059e+01 -4.2187122515361708e+01 0
8.4506089558042788e+01 -4.0915634129418358e+01 0
-2.3324824763894703e+01 1.1648671223760726e+01 0
-2.4383309196847641e+01 1.1550716967832011e+01 0
3.2554792057789399e+01 2.1646049261979282e+01 0
6.2642287631315128e+00 2.1717646880572932e+01 0
6.3738496889370879e+01 -2.3354686567707226e+01 0
1.3434007069147178e+01 2.9573511289314666e+01 0
2.7639046367636695e+00 -7.5615353690841669e-01 0
4.0164356925048139e+00 9.1477361471884606e+00 0
-1.8642254516173537e+01 2.7145599220928460e+00 0
-2.0690338085311382e+01 8.4184343161323802e+00 0
-2.4122513326313424e+00 -4.9986216028941417e+00 0

