# vtk DataFile Version 2.0

ASCII

DATASET UNSTRUCTURED_GRID

POINTS 79 float 

-5.0000000000000003e-02  0.0000000000000000e+00  0.0000000000000000e+00
-5.0000000000000003e-02  5.5555555555555552e-02  0.0000000000000000e+00
-5.0000000000000003e-02  2.7777777777777776e-02  0.0000000000000000e+00
5.0000000000000003e-02  0.0000000000000000e+00  0.0000000000000000e+00
5.0000000000000003e-02  5.5555555555555552e-02  0.0000000000000000e+00
5.0000000000000003e-02  2.7777777777777776e-02  0.0000000000000000e+00
-5.0000000000000003e-02  1.1111111111111110e-01  0.0000000000000000e+00
-5.0000000000000003e-02  8.3333333333333329e-02  0.0000000000000000e+00
5.0000000000000003e-02  1.1111111111111110e-01  0.0000000000000000e+00
5.0000000000000003e-02  8.3333333333333329e-02  0.0000000000000000e+00
-5.0000000000000003e-02  1.6666666666666666e-01  0.0000000000000000e+00
-5.0000000000000003e-02  1.3888888888888890e-01  0.0000000000000000e+00
5.0000000000000003e-02  1.6666666666666666e-01  0.0000000000000000e+00
5.0000000000000003e-02  1.3888888888888890e-01  0.0000000000000000e+00
-5.0000000000000003e-02  2.2222222222222221e-01  0.0000000000000000e+00
-5.0000000000000003e-02  1.9444444444444442e-01  0.0000000000000000e+00
5.0000000000000003e-02  2.2222222222222221e-01  0.0000000000000000e+00
5.0000000000000003e-02  1.9444444444444442e-01  0.0000000000000000e+00
-5.0000000000000003e-02  2.7777777777777779e-01  0.0000000000000000e+00
-5.0000000000000003e-02  2.5000000000000000e-01  0.0000000000000000e+00
5.0000000000000003e-02  2.7777777777777779e-01  0.0000000000000000e+00
5.0000000000000003e-02  2.5000000000000000e-01  0.0000000000000000e+00
-5.0000000000000003e-02  3.3333333333333331e-01  0.0000000000000000e+00
-5.0000000000000003e-02  3.0555555555555558e-01  0.0000000000000000e+00
5.0000000000000003e-02  3.3333333333333331e-01  0.0000000000000000e+00
5.0000000000000003e-02  3.0555555555555558e-01  0.0000000000000000e+00
-5.0000000000000003e-02  3.8888888888888884e-01  0.0000000000000000e+00
-5.0000000000000003e-02  3.6111111111111105e-01  0.0000000000000000e+00
5.0000000000000003e-02  3.8888888888888884e-01  0.0000000000000000e+00
5.0000000000000003e-02  3.6111111111111105e-01  0.0000000000000000e+00
-5.0000000000000003e-02  4.4444444444444442e-01  0.0000000000000000e+00
-5.0000000000000003e-02  4.1666666666666663e-01  0.0000000000000000e+00
5.0000000000000003e-02  4.4444444444444442e-01  0.0000000000000000e+00
5.0000000000000003e-02  4.1666666666666663e-01  0.0000000000000000e+00
-5.0000000000000003e-02  5.0000000000000000e-01  0.0000000000000000e+00
-5.0000000000000003e-02  4.7222222222222221e-01  0.0000000000000000e+00
5.0000000000000003e-02  5.0000000000000000e-01  0.0000000000000000e+00
5.0000000000000003e-02  4.7222222222222221e-01  0.0000000000000000e+00
-5.0000000000000003e-02  5.5555555555555558e-01  0.0000000000000000e+00
-5.0000000000000003e-02  5.2777777777777779e-01  0.0000000000000000e+00
5.0000000000000003e-02  5.5555555555555558e-01  0.0000000000000000e+00
5.0000000000000003e-02  5.2777777777777779e-01  0.0000000000000000e+00
-5.0000000000000003e-02  6.1111111111111105e-01  0.0000000000000000e+00
-5.0000000000000003e-02  5.8333333333333326e-01  0.0000000000000000e+00
5.0000000000000003e-02  6.1111111111111105e-01  0.0000000000000000e+00
5.0000000000000003e-02  5.8333333333333326e-01  0.0000000000000000e+00
-5.0000000000000003e-02  6.6666666666666663e-01  0.0000000000000000e+00
-5.0000000000000003e-02  6.3888888888888884e-01  0.0000000000000000e+00
5.0000000000000003e-02  6.6666666666666663e-01  0.0000000000000000e+00
5.0000000000000003e-02  6.3888888888888884e-01  0.0000000000000000e+00
-5.0000000000000003e-02  7.2222222222222221e-01  0.0000000000000000e+00
-5.0000000000000003e-02  6.9444444444444442e-01  0.0000000000000000e+00
5.0000000000000003e-02  7.2222222222222221e-01  0.0000000000000000e+00
5.0000000000000003e-02  6.9444444444444442e-01  0.0000000000000000e+00
-5.0000000000000003e-02  7.7777777777777768e-01  0.0000000000000000e+00
-5.0000000000000003e-02  7.5000000000000000e-01  0.0000000000000000e+00
5.0000000000000003e-02  7.7777777777777768e-01  0.0000000000000000e+00
5.0000000000000003e-02  7.5000000000000000e-01  0.0000000000000000e+00
-5.0000000000000003e-02  8.3333333333333326e-01  0.0000000000000000e+00
-5.0000000000000003e-02  8.0555555555555547e-01  0.0000000000000000e+00
5.0000000000000003e-02  8.3333333333333326e-01  0.0000000000000000e+00
5.0000000000000003e-02  8.0555555555555547e-01  0.0000000000000000e+00
-5.0000000000000003e-02  8.8888888888888884e-01  0.0000000000000000e+00
-5.0000000000000003e-02  8.6111111111111105e-01  0.0000000000000000e+00
5.0000000000000003e-02  8.8888888888888884e-01  0.0000000000000000e+00
5.0000000000000003e-02  8.6111111111111105e-01  0.0000000000000000e+00
-5.0000000000000003e-02  9.4444444444444442e-01  0.0000000000000000e+00
-5.0000000000000003e-02  9.1666666666666663e-01  0.0000000000000000e+00
5.0000000000000003e-02  9.4444444444444442e-01  0.0000000000000000e+00
5.0000000000000003e-02  9.1666666666666663e-01  0.0000000000000000e+00
-5.0000000000000003e-02  1.0000000000000000e+00  0.0000000000000000e+00
-1.6666666666666670e-02  1.0000000000000000e+00  0.0000000000000000e+00
-5.0000000000000003e-02  9.7222222222222221e-01  0.0000000000000000e+00
-3.3333333333333340e-02  1.0000000000000000e+00  0.0000000000000000e+00
1.6666666666666663e-02  1.0000000000000000e+00  0.0000000000000000e+00
-3.4694469519536142e-18  1.0000000000000000e+00  0.0000000000000000e+00
5.0000000000000003e-02  1.0000000000000000e+00  0.0000000000000000e+00
5.0000000000000003e-02  9.7222222222222221e-01  0.0000000000000000e+00
3.3333333333333333e-02  1.0000000000000000e+00  0.0000000000000000e+00

CELLS 0 0


CELL_TYPES 0


POINT_DATA 79

VECTORS VertexNormals float

0.0000000000000000e+00 0.0000000000000000e+00 0
0.0000000000000000e+00 0.0000000000000000e+00 0
0.0000000000000000e+00 0.0000000000000000e+00 0
0.0000000000000000e+00 0.0000000000000000e+00 0
0.0000000000000000e+00 0.0000000000000000e+00 0
0.0000000000000000e+00 0.0000000000000000e+00 0
0.0000000000000000e+00 0.0000000000000000e+00 0
0.0000000000000000e+00 0.0000000000000000e+00 0
0.0000000000000000e+00 0.0000000000000000e+00 0
0.0000000000000000e+00 0.0000000000000000e+00 0
0.0000000000000000e+00 0.0000000000000000e+00 0
0.0000000000000000e+00 0.0000000000000000e+00 0
0.0000000000000000e+00 0.0000000000000000e+00 0
0.0000000000000000e+00 0.0000000000000000e+00 0
0.0000000000000000e+00 0.0000000000000000e+00 0
0.0000000000000000e+00 0.0000000000000000e+00 0
0.0000000000000000e+00 0.0000000000000000e+00 0
0.0000000000000000e+00 0.0000000000000000e+00 0
0.0000000000000000e+00 0.0000000000000000e+00 0
0.0000000000000000e+00 0.0000000000000000e+00 0
0.0000000000000000e+00 0.0000000000000000e+00 0
0.0000000000000000e+00 0.0000000000000000e+00 0
0.0000000000000000e+00 0.0000000000000000e+00 0
0.0000000000000000e+00 0.0000000000000000e+00 0
0.0000000000000000e+00 0.0000000000000000e+00 0
0.0000000000000000e+00 0.0000000000000000e+00 0
0.0000000000000000e+00 0.0000000000000000e+00 0
0.0000000000000000e+00 0.0000000000000000e+00 0
0.0000000000000000e+00 0.0000000000000000e+00 0
0.0000000000000000e+00 0.0000000000000000e+00 0
0.0000000000000000e+00 0.0000000000000000e+00 0
0.0000000000000000e+00 0.0000000000000000e+00 0
0.0000000000000000e+00 0.0000000000000000e+00 0
0.0000000000000000e+00 0.0000000000000000e+00 0
0.0000000000000000e+00 0.0000000000000000e+00 0
0.0000000000000000e+00 0.0000000000000000e+00 0
0.0000000000000000e+00 0.0000000000000000e+00 0
0.0000000000000000e+00 0.0000000000000000e+00 0
0.0000000000000000e+00 0.0000000000000000e+00 0
0.0000000000000000e+00 0.0000000000000000e+00 0
0.0000000000000000e+00 0.0000000000000000e+00 0
0.0000000000000000e+00 0.0000000000000000e+00 0
0.0000000000000000e+00 0.0000000000000000e+00 0
0.0000000000000000e+00 0.0000000000000000e+00 0
0.0000000000000000e+00 0.0000000000000000e+00 0
0.0000000000000000e+00 0.0000000000000000e+00 0
0.0000000000000000e+00 0.0000000000000000e+00 0
0.0000000000000000e+00 0.0000000000000000e+00 0
0.0000000000000000e+00 0.0000000000000000e+00 0
0.0000000000000000e+00 0.0000000000000000e+00 0
0.0000000000000000e+00 0.0000000000000000e+00 0
0.0000000000000000e+00 0.0000000000000000e+00 0
0.0000000000000000e+00 0.0000000000000000e+00 0
0.0000000000000000e+00 0.0000000000000000e+00 0
0.0000000000000000e+00 0.0000000000000000e+00 0
0.0000000000000000e+00 0.0000000000000000e+00 0
0.0000000000000000e+00 0.0000000000000000e+00 0
0.0000000000000000e+00 0.0000000000000000e+00 0
0.0000000000000000e+00 0.0000000000000000e+00 0
0.0000000000000000e+00 0.0000000000000000e+00 0
0.0000000000000000e+00 0.0000000000000000e+00 0
0.0000000000000000e+00 0.0000000000000000e+00 0
0.0000000000000000e+00 0.0000000000000000e+00 0
0.0000000000000000e+00 0.0000000000000000e+00 0
0.0000000000000000e+00 0.0000000000000000e+00 0
0.0000000000000000e+00 0.0000000000000000e+00 0
0.0000000000000000e+00 0.0000000000000000e+00 0
0.0000000000000000e+00 0.0000000000000000e+00 0
0.0000000000000000e+00 0.0000000000000000e+00 0
0.0000000000000000e+00 0.0000000000000000e+00 0
0.0000000000000000e+00 0.0000000000000000e+00 0
0.0000000000000000e+00 0.0000000000000000e+00 0
0.0000000000000000e+00 0.0000000000000000e+00 0
0.0000000000000000e+00 0.0000000000000000e+00 0
0.0000000000000000e+00 0.0000000000000000e+00 0
0.0000000000000000e+00 0.0000000000000000e+00 0
0.0000000000000000e+00 0.0000000000000000e+00 0
0.0000000000000000e+00 0.0000000000000000e+00 0
0.0000000000000000e+00 0.0000000000000000e+00 0

VECTORS Displacement float
0.0000000000000000e+00 0.0000000000000000e+00 0
1.2538954752561397e-03 1.3291503946227259e-03 0
5.4700172460165545e-04 7.3251986372410965e-04 0
0.0000000000000000e+00 0.0000000000000000e+00 0
1.1920730465174417e-03 -1.1548402695276765e-03 0
5.4045216765103289e-04 -6.5432282163861342e-04 0
3.3792801446875017e-03 2.2101215755088214e-03 0
2.2208895693801283e-03 1.8105938138383510e-03 0
3.3092444878080572e-03 -1.9674023417195871e-03 0
2.1042339691226689e-03 -1.5935839889003891e-03 0
6.2660552610221470e-03 2.8016341506486350e-03 0
4.7411188561414510e-03 2.5447005117290511e-03 0
6.1936157467325070e-03 -2.4203198147227998e-03 0
4.7145363643331887e-03 -2.2294317992781012e-03 0
9.5539639112905243e-03 3.0740040909580258e-03 0
7.8736238110168576e-03 2.9702504952295239e-03 0
9.4572204575257557e-03 -2.6244086040900830e-03 0
7.7634823322344721e-03 -2.5618738476807972e-03 0
1.2859808419648597e-02 3.0688183786105206e-03 0
1.1239908746725726e-02 3.0913626587851344e-03 0
1.2790999877261861e-02 -2.4804964905718475e-03 0
1.1163063924027251e-02 -2.5736299138489258e-03 0
1.6017473950355722e-02 2.9200870426109274e-03 0
1.4455749974124124e-02 3.0254682503675539e-03 0
1.5940506442722192e-02 -2.1931835900626173e-03 0
1.4386136752586900e-02 -2.3692720340784926e-03 0
1.8662139971184308e-02 2.5315009030414080e-03 0
1.7438717287089261e-02 2.7315720120826563e-03 0
1.8554289634190688e-02 -1.6370032311309047e-03 0
1.7347016196467401e-02 -1.9264870262459734e-03 0
2.0763736150061760e-02 2.2004932854928555e-03 0
1.9750795284063902e-02 2.3686874531245999e-03 0
2.0636376646861999e-02 -1.0945866232810056e-03 0
1.9630363604246026e-02 -1.3731441201685305e-03 0
2.2336584086176618e-02 1.6784303312338844e-03 0
2.1656797591338380e-02 1.9659725782295752e-03 0
2.2219795422945436e-02 -3.4438701519141121e-04 0
2.1531862213352702e-02 -7.4541655457542003e-04 0
2.2963737296473660e-02 1.1260769687666890e-03 0
2.2761309556213624e-02 1.3822565012755793e-03 0
2.2872041926728919e-02 4.1883936438801559e-04 0
2.2657235865990652e-02 6.0538705302385352e-05 0
2.2997991572852670e-02 7.7591808144370097e-04 0
2.3024592558802869e-02 9.3622316206364606e-04 0
2.2917814592963881e-02 9.5460490589832560e-04 0
2.2941092407597025e-02 7.0458845479521226e-04 0
2.2653853873625431e-02 4.3444824374754855e-04 0
2.2883428140695786e-02 6.1272387736881434e-04 0
2.2572746418577139e-02 1.4518781289257869e-03 0
2.2802494864889018e-02 1.2000324286845728e-03 0
2.1714671120096635e-02 5.5786850670249652e-05 0
2.2275891301197368e-02 2.3689753828926987e-04 0
2.1651937480700642e-02 1.9614700088450999e-03 0
2.2200469919859269e-02 1.7148818296447866e-03 0
2.0193819601918659e-02 -2.0743287016383738e-05 0
2.0988638731843878e-02 -4.1474106884658028e-05 0
2.0143173689451122e-02 2.2019241692406754e-03 0
2.0936821371693858e-02 2.1360445161532128e-03 0
1.8882669010125044e-02 3.0460334628568261e-04 0
1.9467946528171146e-02 1.2259743754020996e-04 0
1.8833809408517345e-02 1.9785679447850701e-03 0
1.9414788983111331e-02 2.1310483105366628e-03 0
1.8121730266632007e-02 6.7875938222089233e-04 0
1.8428891821951884e-02 4.9024655568779955e-04 0
1.8134151417066053e-02 1.5938545341417070e-03 0
1.8405483212411748e-02 1.7803812830384175e-03 0
1.7851339302800730e-02 9.6123679449043619e-04 0
1.7946461925489078e-02 8.4631020340753124e-04 0
1.7818174803616575e-02 1.4246151371235310e-03 0
1.7957821810698972e-02 1.4846346305682906e-03 0
1.7644080792970807e-02 1.0399624999350675e-03 0
1.7634467418992193e-02 1.2065306721293584e-03 0
1.7766090730752110e-02 1.0144829132636686e-03 0
1.7635930003039424e-02 1.1169404395772928e-03 0
1.7676259059871594e-02 1.3184642631819117e-03 0
1.7647877928995054e-02 1.2749576463592471e-03 0
1.7726640014036833e-02 1.3740000541843855e-03 0
1.7747444933080773e-02 1.3881586944946797e-03 0
1.7710536655288572e-02 1.3548849511794479e-03 0

VECTORS Stress float
1.3162718113484834e+02 -4.6133176975224757e+01 0
1.0833345548262899e+02 4.3255282510057373e+00 0
1.1398758857270256e+02 -7.3384117128005553e+00 0
1.1896818933930942e+02 -4.5044871421236707e+01 0
9.3640012202868334e+01 4.6166692342362161e+00 0
9.9688683031479968e+01 -6.8742455942088601e+00 0
1.1216899067122944e+02 -5.9645169148601376e+00 0
1.0996891825409639e+02 -1.7454643882911824e-01 0
9.7846144082853073e+01 -5.4839662408623635e+00 0
9.5392731580015877e+01 1.6699809577871250e-01 0
1.1129842857875481e+02 -6.1728583819495135e+00 0
1.1192347373161812e+02 -6.5793156529007195e+00 0
9.7737296818407444e+01 -5.3706303921275982e+00 0
9.7995144058003461e+01 -5.9035933279333630e+00 0
1.1052285503966726e+02 -6.4893129531666780e+00 0
1.1080825607828793e+02 -6.2185164355270519e+00 0
9.8487350942602518e+01 -5.8076333009880514e+00 0
9.8004610424330025e+01 -5.4430824652241849e+00 0
1.0957909712970793e+02 -6.3952171148260177e+00 0
1.1010378560391999e+02 -6.5648906325898935e+00 0
9.9813075151332768e+01 -5.7990708240363809e+00 0
9.9109937318595655e+01 -5.9411831616572179e+00 0
1.0839946369466546e+02 -5.5774495874743515e+00 0
1.0906008637990129e+02 -6.0784390883995165e+00 0
1.0166887119956161e+02 -5.0917468774855799e+00 0
1.0062360831212757e+02 -5.5271543274425525e+00 0
1.0699899576413797e+02 -4.5376314725615821e+00 0
1.0777957529558606e+02 -5.0381631980869095e+00 0
1.0410779832473115e+02 -4.2534205034365478e+00 0
1.0278279677074266e+02 -4.6462633168601180e+00 0
1.0529577113200139e+02 -3.4378365224784702e+00 0
1.0618061418869125e+02 -4.0295909999718731e+00 0
1.0708676948229211e+02 -3.3881056626529897e+00 0
1.0552729196349237e+02 -3.8688437803369311e+00 0
1.0325346480151883e+02 -1.9427358399280479e+00 0
1.0428872380836481e+02 -2.7290198749650969e+00 0
1.1059442417602973e+02 -2.0399900062579306e+00 0
1.0882064576740910e+02 -2.7612657127755185e+00 0
1.0076856008308977e+02 -4.0370487326839566e-01 0
1.0206370804367174e+02 -1.1528770189086046e+00 0
1.1442662272550547e+02 -4.5617183505078884e-01 0
1.1253041589682428e+02 -1.2369251500438381e+00 0
9.7587530221156243e+01 4.2019979657951723e-01 0
9.9285392297636676e+01 9.3471026998891205e-02 0
1.1799388080498167e+02 5.0080005576432995e-01 0
1.1626607478791122e+02 9.7787778418044979e-02 0
9.3611674644724971e+01 1.2116069946035140e+00 0
9.5702145389315831e+01 7.7874283351776796e-01 0
1.2101193771123216e+02 1.5279938387449334e+00 0
1.1956900904669743e+02 9.5444515494523330e-01 0
8.8558955916898299e+01 2.2340018927034464e+00 0
9.1225472106826516e+01 1.7578248786850281e+00 0
1.2307102602109194e+02 2.9469379161511711e+00 0
1.2218913965468403e+02 2.2415038929019673e+00 0
8.1685298214431157e+01 2.1916579992382736e+00 0
8.5421395800462051e+01 2.5663091325984198e+00 0
1.2382311020454935e+02 3.3354231091223099e+00 0
1.2358440355700634e+02 3.5284338931821893e+00 0
7.1546764439436288e+01 1.6136585831041117e+00 0
7.7173445448369264e+01 1.2713717262484252e+00 0
1.2233211915611727e+02 2.4554690898107481e+00 0
1.2364498106022955e+02 2.4413365428627500e+00 0
5.6217384406597063e+01 4.6425610075591237e+00 0
6.4570655445260044e+01 4.7768062487701854e+00 0
1.1727951405593470e+02 4.0392627849931557e+00 0
1.1924854654951857e+02 4.4694818177357689e+00 0
3.2765167224565744e+01 -3.0078067817912668e+01 0
4.6566084115992517e+01 -1.4866206558970859e+01 0
1.3023759852176522e+02 -2.1066017388794393e+01 0
1.2476100955974314e+02 -1.0489714948297546e+01 0
-1.2499771750454229e+01 1.7122507365768803e+02 0
1.4235803338639599e+00 1.7676645869422475e+02 0
1.3611580214082984e+01 2.2551344943648857e+01 0
-6.5969210516438892e-01 1.8344026080232851e+02 0
-2.6552373170657262e+00 1.4600476044651836e+02 0
-4.0535361630921329e-01 1.6271470770436861e+02 0
1.6582593587163288e+01 1.1912460101243130e+02 0
9.9317686374660269e+01 1.4740460692046021e+01 0
-2.2986728890588637e-01 1.3046601386520734e+02 0

