# vtk DataFile Version 2.0

ASCII

DATASET UNSTRUCTURED_GRID

POINTS 79 float 

-5.0000000000000003e-02  0.0000000000000000e+00  0.0000000000000000e+00
-5.0000000000000003e-02  5.5555555555555552e-02  0.0000000000000000e+00
-5.0000000000000003e-02  2.7777777777777776e-02  0.0000000000000000e+00
5.0000000000000003e-02  0.0000000000000000e+00  0.0000000000000000e+00
5.0000000000000003e-02  5.5555555555555552e-02  0.0000000000000000e+00
5.0000000000000003e-02  2.7777777777777776e-02  0.0000000000000000e+00
-5.0000000000000003e-02  1.1111111111111110e-01  0.0000000000000000e+00
-5.0000000000000003e-02  8.3333333333333329e-02  0.0000000000000000e+00
5.0000000000000003e-02  1.1111111111111110e-01  0.0000000000000000e+00
5.0000000000000003e-02  8.3333333333333329e-02  0.0000000000000000e+00
-5.0000000000000003e-02  1.6666666666666666e-01  0.0000000000000000e+00
-5.0000000000000003e-02  1.3888888888888890e-01  0.0000000000000000e+00
5.0000000000000003e-02  1.6666666666666666e-01  0.0000000000000000e+00
5.0000000000000003e-02  1.3888888888888890e-01  0.0000000000000000e+00
-5.0000000000000003e-02  2.2222222222222221e-01  0.0000000000000000e+00
-5.0000000000000003e-02  1.9444444444444442e-01  0.0000000000000000e+00
5.0000000000000003e-02  2.2222222222222221e-01  0.0000000000000000e+00
5.0000000000000003e-02  1.9444444444444442e-01  0.0000000000000000e+00
-5.0000000000000003e-02  2.7777777777777779e-01  0.0000000000000000e+00
-5.0000000000000003e-02  2.5000000000000000e-01  0.0000000000000000e+00
5.0000000000000003e-02  2.7777777777777779e-01  0.0000000000000000e+00
5.0000000000000003e-02  2.5000000000000000e-01  0.0000000000000000e+00
-5.0000000000000003e-02  3.3333333333333331e-01  0.0000000000000000e+00
-5.0000000000000003e-02  3.0555555555555558e-01  0.0000000000000000e+00
5.0000000000000003e-02  3.3333333333333331e-01  0.0000000000000000e+00
5.0000000000000003e-02  3.0555555555555558e-01  0.0000000000000000e+00
-5.0000000000000003e-02  3.8888888888888884e-01  0.0000000000000000e+00
-5.0000000000000003e-02  3.6111111111111105e-01  0.0000000000000000e+00
5.0000000000000003e-02  3.8888888888888884e-01  0.0000000000000000e+00
5.0000000000000003e-02  3.6111111111111105e-01  0.0000000000000000e+00
-5.0000000000000003e-02  4.4444444444444442e-01  0.0000000000000000e+00
-5.0000000000000003e-02  4.1666666666666663e-01  0.0000000000000000e+00
5.0000000000000003e-02  4.4444444444444442e-01  0.0000000000000000e+00
5.0000000000000003e-02  4.1666666666666663e-01  0.0000000000000000e+00
-5.0000000000000003e-02  5.0000000000000000e-01  0.0000000000000000e+00
-5.0000000000000003e-02  4.7222222222222221e-01  0.0000000000000000e+00
5.0000000000000003e-02  5.0000000000000000e-01  0.0000000000000000e+00
5.0000000000000003e-02  4.7222222222222221e-01  0.0000000000000000e+00
-5.0000000000000003e-02  5.5555555555555558e-01  0.0000000000000000e+00
-5.0000000000000003e-02  5.2777777777777779e-01  0.0000000000000000e+00
5.0000000000000003e-02  5.5555555555555558e-01  0.0000000000000000e+00
5.0000000000000003e-02  5.2777777777777779e-01  0.0000000000000000e+00
-5.0000000000000003e-02  6.1111111111111105e-01  0.0000000000000000e+00
-5.0000000000000003e-02  5.8333333333333326e-01  0.0000000000000000e+00
5.0000000000000003e-02  6.1111111111111105e-01  0.0000000000000000e+00
5.0000000000000003e-02  5.8333333333333326e-01  0.0000000000000000e+00
-5.0000000000000003e-02  6.6666666666666663e-01  0.0000000000000000e+00
-5.0000000000000003e-02  6.3888888888888884e-01  0.0000000000000000e+00
5.0000000000000003e-02  6.6666666666666663e-01  0.0000000000000000e+00
5.0000000000000003e-02  6.3888888888888884e-01  0.0000000000000000e+00
-5.0000000000000003e-02  7.2222222222222221e-01  0.0000000000000000e+00
-5.0000000000000003e-02  6.9444444444444442e-01  0.0000000000000000e+00
5.0000000000000003e-02  7.2222222222222221e-01  0.0000000000000000e+00
5.0000000000000003e-02  6.9444444444444442e-01  0.0000000000000000e+00
-5.0000000000000003e-02  7.7777777777777768e-01  0.0000000000000000e+00
-5.0000000000000003e-02  7.5000000000000000e-01  0.0000000000000000e+00
5.0000000000000003e-02  7.7777777777777768e-01  0.0000000000000000e+00
5.0000000000000003e-02  7.5000000000000000e-01  0.0000000000000000e+00
-5.0000000000000003e-02  8.3333333333333326e-01  0.0000000000000000e+00
-5.0000000000000003e-02  8.0555555555555547e-01  0.0000000000000000e+00
5.0000000000000003e-02  8.3333333333333326e-01  0.0000000000000000e+00
5.0000000000000003e-02  8.0555555555555547e-01  0.0000000000000000e+00
-5.0000000000000003e-02  8.8888888888888884e-01  0.0000000000000000e+00
-5.0000000000000003e-02  8.6111111111111105e-01  0.0000000000000000e+00
5.0000000000000003e-02  8.8888888888888884e-01  0.0000000000000000e+00
5.0000000000000003e-02  8.6111111111111105e-01  0.0000000000000000e+00
-5.0000000000000003e-02  9.4444444444444442e-01  0.0000000000000000e+00
-5.0000000000000003e-02  9.1666666666666663e-01  0.0000000000000000e+00
5.0000000000000003e-02  9.4444444444444442e-01  0.0000000000000000e+00
5.0000000000000003e-02  9.1666666666666663e-01  0.0000000000000000e+00
-5.0000000000000003e-02  1.0000000000000000e+00  0.0000000000000000e+00
-1.6666666666666670e-02  1.0000000000000000e+00  0.0000000000000000e+00
-5.0000000000000003e-02  9.7222222222222221e-01  0.0000000000000000e+00
-3.3333333333333340e-02  1.0000000000000000e+00  0.0000000000000000e+00
1.6666666666666663e-02  1.0000000000000000e+00  0.0000000000000000e+00
-3.4694469519536142e-18  1.0000000000000000e+00  0.0000000000000000e+00
5.0000000000000003e-02  1.0000000000000000e+00  0.0000000000000000e+00
5.0000000000000003e-02  9.7222222222222221e-01  0.0000000000000000e+00
3.3333333333333333e-02  1.0000000000000000e+00  0.0000000000000000e+00

CELLS 0 0


CELL_TYPES 0


POINT_DATA 79

VECTORS VertexNormals float

0.0000000000000000e+00 0.0000000000000000e+00 0
0.0000000000000000e+00 0.0000000000000000e+00 0
0.0000000000000000e+00 0.0000000000000000e+00 0
0.0000000000000000e+00 0.0000000000000000e+00 0
0.0000000000000000e+00 0.0000000000000000e+00 0
0.0000000000000000e+00 0.0000000000000000e+00 0
0.0000000000000000e+00 0.0000000000000000e+00 0
0.0000000000000000e+00 0.0000000000000000e+00 0
0.0000000000000000e+00 0.0000000000000000e+00 0
0.0000000000000000e+00 0.0000000000000000e+00 0
0.0000000000000000e+00 0.0000000000000000e+00 0
0.0000000000000000e+00 0.0000000000000000e+00 0
0.0000000000000000e+00 0.0000000000000000e+00 0
0.0000000000000000e+00 0.0000000000000000e+00 0
0.0000000000000000e+00 0.0000000000000000e+00 0
0.0000000000000000e+00 0.0000000000000000e+00 0
0.0000000000000000e+00 0.0000000000000000e+00 0
0.0000000000000000e+00 0.0000000000000000e+00 0
0.0000000000000000e+00 0.0000000000000000e+00 0
0.0000000000000000e+00 0.0000000000000000e+00 0
0.0000000000000000e+00 0.0000000000000000e+00 0
0.0000000000000000e+00 0.0000000000000000e+00 0
0.0000000000000000e+00 0.0000000000000000e+00 0
0.0000000000000000e+00 0.0000000000000000e+00 0
0.0000000000000000e+00 0.0000000000000000e+00 0
0.0000000000000000e+00 0.0000000000000000e+00 0
0.0000000000000000e+00 0.0000000000000000e+00 0
0.0000000000000000e+00 0.0000000000000000e+00 0
0.0000000000000000e+00 0.0000000000000000e+00 0
0.0000000000000000e+00 0.0000000000000000e+00 0
0.0000000000000000e+00 0.0000000000000000e+00 0
0.0000000000000000e+00 0.0000000000000000e+00 0
0.0000000000000000e+00 0.0000000000000000e+00 0
0.0000000000000000e+00 0.0000000000000000e+00 0
0.0000000000000000e+00 0.0000000000000000e+00 0
0.0000000000000000e+00 0.0000000000000000e+00 0
0.0000000000000000e+00 0.0000000000000000e+00 0
0.0000000000000000e+00 0.0000000000000000e+00 0
0.0000000000000000e+00 0.0000000000000000e+00 0
0.0000000000000000e+00 0.0000000000000000e+00 0
0.0000000000000000e+00 0.0000000000000000e+00 0
0.0000000000000000e+00 0.0000000000000000e+00 0
0.0000000000000000e+00 0.0000000000000000e+00 0
0.0000000000000000e+00 0.0000000000000000e+00 0
0.0000000000000000e+00 0.0000000000000000e+00 0
0.0000000000000000e+00 0.0000000000000000e+00 0
0.0000000000000000e+00 0.0000000000000000e+00 0
0.0000000000000000e+00 0.0000000000000000e+00 0
0.0000000000000000e+00 0.0000000000000000e+00 0
0.0000000000000000e+00 0.0000000000000000e+00 0
0.0000000000000000e+00 0.0000000000000000e+00 0
0.0000000000000000e+00 0.0000000000000000e+00 0
0.0000000000000000e+00 0.0000000000000000e+00 0
0.0000000000000000e+00 0.0000000000000000e+00 0
0.0000000000000000e+00 0.0000000000000000e+00 0
0.0000000000000000e+00 0.0000000000000000e+00 0
0.0000000000000000e+00 0.0000000000000000e+00 0
0.0000000000000000e+00 0.0000000000000000e+00 0
0.0000000000000000e+00 0.0000000000000000e+00 0
0.0000000000000000e+00 0.0000000000000000e+00 0
0.0000000000000000e+00 0.0000000000000000e+00 0
0.0000000000000000e+00 0.0000000000000000e+00 0
0.0000000000000000e+00 0.0000000000000000e+00 0
0.0000000000000000e+00 0.0000000000000000e+00 0
0.0000000000000000e+00 0.0000000000000000e+00 0
0.0000000000000000e+00 0.0000000000000000e+00 0
0.0000000000000000e+00 0.0000000000000000e+00 0
0.0000000000000000e+00 0.0000000000000000e+00 0
0.0000000000000000e+00 0.0000000000000000e+00 0
0.0000000000000000e+00 0.0000000000000000e+00 0
0.0000000000000000e+00 0.0000000000000000e+00 0
0.0000000000000000e+00 0.0000000000000000e+00 0
0.0000000000000000e+00 0.0000000000000000e+00 0
0.0000000000000000e+00 0.0000000000000000e+00 0
0.0000000000000000e+00 0.0000000000000000e+00 0
0.0000000000000000e+00 0.0000000000000000e+00 0
0.0000000000000000e+00 0.0000000000000000e+00 0
0.0000000000000000e+00 0.0000000000000000e+00 0
0.0000000000000000e+00 0.0000000000000000e+00 0

VECTORS Displacement float
0.0000000000000000e+00 0.0000000000000000e+00 0
2.4100547163024644e-03 2.8119886485894717e-03 0
1.0671902275680206e-03 1.4949079761583358e-03 0
0.0000000000000000e+00 0.0000000000000000e+00 0
2.2475293935154015e-03 -2.5843933015304056e-03 0
9.7686915794525236e-04 -1.3619221249396487e-03 0
7.2299401689454590e-03 5.1454445820704941e-03 0
4.4902874560027155e-03 4.0461541411964006e-03 0
7.0849233734149560e-03 -4.7893340623719619e-03 0
4.3089430938231307e-03 -3.7595885045991172e-03 0
1.4125363595752310e-02 6.7089118229893118e-03 0
1.0489310023574982e-02 6.0274989710223294e-03 0
1.3932427642322885e-02 -6.1632215169238336e-03 0
1.0351533894878806e-02 -5.5746112340612428e-03 0
2.2048218513201833e-02 7.6857116645115010e-03 0
1.8020409466896290e-02 7.2307703724004456e-03 0
2.1884794629609274e-02 -6.9628268540716364e-03 0
1.7811597925757268e-02 -6.6085089996825970e-03 0
3.0769684877967995e-02 8.4691287382736881e-03 0
2.6287985707492592e-02 8.1105210808177577e-03 0
3.0597418959249494e-02 -7.4890342741996121e-03 0
2.6154441011633237e-02 -7.2458965255558921e-03 0
4.0163204025509706e-02 8.8097472707194899e-03 0
3.5411031876180193e-02 8.7080065365030875e-03 0
4.0003024904049264e-02 -7.7564313808711378e-03 0
3.5208777513550019e-02 -7.6835887966666076e-03 0
4.9472787253497935e-02 8.6061330340491144e-03 0
4.4882245045157781e-02 8.7533247004016844e-03 0
4.9348455951328599e-02 -7.4245323889382282e-03 0
4.4776725301934342e-02 -7.6352350285181850e-03 0
5.8151716119243635e-02 8.1353378323825512e-03 0
5.3912596285300346e-02 8.3838623441951053e-03 0
5.8013733990483908e-02 -7.0129449652700359e-03 0
5.3734399863443770e-02 -7.2125224313332615e-03 0
6.6286936082430026e-02 7.7711162125562085e-03 0
6.2257845198712095e-02 7.9313337452623298e-03 0
6.6194878963603418e-02 -6.6042603926495264e-03 0
6.2188954649749030e-02 -6.8021868800887380e-03 0
7.4076571831116766e-02 7.5169240959606079e-03 0
7.0230221486003649e-02 7.6365179179198207e-03 0
7.3972883034178982e-02 -6.3273171124247725e-03 0
7.0102381586323148e-02 -6.4595049747369297e-03 0
8.1618296276126878e-02 7.3704107035984295e-03 0
7.7852498971185485e-02 7.4289270964513158e-03 0
8.1440547785313719e-02 -6.1361268984405706e-03 0
7.7742357487746022e-02 -6.2039298374134532e-03 0
8.9100274466287280e-02 7.2715275617522730e-03 0
8.5376287336484266e-02 7.3217642190603694e-03 0
8.9002945242816503e-02 -6.0714423692014158e-03 0
8.5196102895549949e-02 -6.1181150125420589e-03 0
9.6478762063135243e-02 7.1214489038288007e-03 0
9.2808350558436864e-02 7.2098895391921915e-03 0
9.6344135606474396e-02 -5.8124959414917483e-03 0
9.2732415413142089e-02 -5.9569488011855295e-03 0
1.0346371723605191e-01 6.8866954754289054e-03 0
1.0003951229368946e-01 6.9981496992433806e-03 0
1.0333763669811444e-01 -5.5343948675190668e-03 0
9.9873726836887028e-02 -5.6701244737949238e-03 0
1.1014214694071908e-01 6.7469121041440787e-03 0
1.0681055783924301e-01 6.8189873609820163e-03 0
1.1003152632397944e-01 -5.2732004785744219e-03 0
1.0673256588834945e-01 -5.3966069531603267e-03 0
1.1659032067169145e-01 6.6029846650874826e-03 0
1.1340066119432389e-01 6.6639897296065917e-03 0
1.1644678630159121e-01 -5.1622357266331619e-03 0
1.1324185995957546e-01 -5.1985557143796376e-03 0
1.2289502977473665e-01 6.5595640873901753e-03 0
1.1975798793390427e-01 6.5726212013512211e-03 0
1.2282933868690540e-01 -5.0117709827081957e-03 0
1.1967206041516892e-01 -5.1025919971632722e-03 0
1.2922902262412728e-01 6.5967108557244830e-03 0
1.2917944734686540e-01 2.7539743391238190e-03 0
1.2603991866542302e-01 6.5720394424534445e-03 0
1.2921175717707017e-01 4.6738864582736026e-03 0
1.2909991086431202e-01 -1.1169485404837862e-03 0
1.2913921619359214e-01 8.1973672200033338e-04 0
1.2904432823970141e-01 -4.9431099576992196e-03 0
1.2591710674982629e-01 -4.9613943508219956e-03 0
1.2906367451082296e-01 -3.0434935758405328e-03 0

VECTORS Stress float
1.2841533656332288e+02 -3.1200345986287349e+01 0
1.1619521836640737e+02 -2.4595228024275539e+00 0
1.1919058214191114e+02 -7.9875816277448957e+00 0
5.2348087339085794e+01 -2.7214568076510286e+01 0
3.8669471374701359e+01 1.9158574767432448e+00 0
4.2009295346355671e+01 -4.5936173371100546e+00 0
1.1812281123073844e+02 -1.2803883099733412e+01 0
1.1701785323472625e+02 -7.3407642932763313e+00 0
4.0580292130832952e+01 -5.0742339538142209e+00 0
3.9434793895292451e+01 -1.2336140932756829e+00 0
1.1753336874652950e+02 -1.5517165921738094e+01 0
1.1791624718273845e+02 -1.4627149153805302e+01 0
4.0326620611328060e+01 -5.4780365655289023e+00 0
4.0549340000705719e+01 -5.6149447640162942e+00 0
1.1695871116008246e+02 -1.7115320901728495e+01 0
1.1719734684166171e+02 -1.6297329368521012e+01 0
4.0797122588423491e+01 -6.0957560733567622e+00 0
4.0496190922818073e+01 -5.6971303177178552e+00 0
1.1586612179125432e+02 -1.8718979133195198e+01 0
1.1650042982256949e+02 -1.7945037921699978e+01 0
4.1744940371733648e+01 -6.8349637609606528e+00 0
4.1230747311692895e+01 -6.4970095489470907e+00 0
1.1436252529549962e+02 -1.9249082632288996e+01 0
1.1519007773502659e+02 -1.9237914659551084e+01 0
4.3195103330699553e+01 -7.2287985620382944e+00 0
4.2351328843330776e+01 -7.0905192335093226e+00 0
1.1265742452227343e+02 -1.8312369860785324e+01 0
1.1356834729819349e+02 -1.8973773280817305e+01 0
4.5240428506740393e+01 -7.2022166610130647e+00 0
4.4106927154406868e+01 -7.2414652723108084e+00 0
1.1064582292524557e+02 -1.6693373175019946e+01 0
1.1170926626160264e+02 -1.7473346935995483e+01 0
4.7744977024432089e+01 -7.0480080264163085e+00 0
4.6454546430158452e+01 -7.1216484607193813e+00 0
1.0805944108540484e+02 -1.5442782634600974e+01 0
1.0939529286871281e+02 -1.6044244391057617e+01 0
5.0460619061571578e+01 -7.0064038089952341e+00 0
4.9121661218099504e+01 -7.0169596615553225e+00 0
1.0483975215088000e+02 -1.4302897127863002e+01 0
1.0651980222139521e+02 -1.4859209205538704e+01 0
5.3155332414783274e+01 -7.0766500205477776e+00 0
5.1854015421111825e+01 -7.0304215399153733e+00 0
1.0078405632715595e+02 -1.3480516915973851e+01 0
1.0293012228835239e+02 -1.3858546954952658e+01 0
5.5488969414612527e+01 -7.3512460500745149e+00 0
5.4375440379028703e+01 -7.1974995240421862e+00 0
9.5789839182191997e+01 -1.2702229009103203e+01 0
9.8420258561980830e+01 -1.3096244342402940e+01 0
5.7458071674667075e+01 -7.5252665820882321e+00 0
5.6494270160704282e+01 -7.4665466724918161e+00 0
8.9829936530504767e+01 -1.1443703193367533e+01 0
9.2926615709546866e+01 -1.2159869018514652e+01 0
5.9076155699300379e+01 -7.4042227935951601e+00 0
5.8298631196860761e+01 -7.4743720740599819e+00 0
8.2594228606742135e+01 -1.0048533756792779e+01 0
8.6416699100391725e+01 -1.0611175936345255e+01 0
6.0359627933514616e+01 -7.3270155073601018e+00 0
5.9739006845932572e+01 -7.2868916302803299e+00 0
7.3194149841633191e+01 -8.4114778889851678e+00 0
7.8241766669434384e+01 -9.6804858633995181e+00 0
6.0907087147299649e+01 -6.9284904569720069e+00 0
6.0884429223670054e+01 -7.4515465209569456e+00 0
6.0416093783163099e+01 -4.2425598936606903e+00 0
6.7314183798835828e+01 -5.3235049425840586e+00 0
5.9915904126903861e+01 -5.1186501014301413e+00 0
6.0107413146441317e+01 -5.2392474854338360e+00 0
4.1479942243436035e+01 -2.3341993643064114e+01 0
5.2283826394423663e+01 -1.5176526526678238e+01 0
6.8180215891060698e+01 -1.9856553000130461e+01 0
6.4502212781800552e+01 -1.3679708536278845e+01 0
1.1010349347926812e+01 1.0509733780896667e+02 0
1.2355369831491466e+01 1.0326681246396966e+02 0
2.7640829492891477e+01 1.1016600260195375e+01 0
1.2992780516695248e+01 1.1101379377562397e+02 0
8.7303583055718050e+00 8.0826341974077621e+01 0
1.0662352629084971e+01 9.1391538689776468e+01 0
1.2510887908131288e+01 6.6337518235034992e+01 0
5.3727666841972813e+01 2.2398838768170961e+00 0
8.1802800421472668e+00 7.2233811964083145e+01 0

