# vtk DataFile Version 2.0

ASCII

DATASET UNSTRUCTURED_GRID

POINTS 79 float 

-5.0000000000000003e-02  0.0000000000000000e+00  0.0000000000000000e+00
-5.0000000000000003e-02  5.5555555555555552e-02  0.0000000000000000e+00
-5.0000000000000003e-02  2.7777777777777776e-02  0.0000000000000000e+00
5.0000000000000003e-02  0.0000000000000000e+00  0.0000000000000000e+00
5.0000000000000003e-02  5.5555555555555552e-02  0.0000000000000000e+00
5.0000000000000003e-02  2.7777777777777776e-02  0.0000000000000000e+00
-5.0000000000000003e-02  1.1111111111111110e-01  0.0000000000000000e+00
-5.0000000000000003e-02  8.3333333333333329e-02  0.0000000000000000e+00
5.0000000000000003e-02  1.1111111111111110e-01  0.0000000000000000e+00
5.0000000000000003e-02  8.3333333333333329e-02  0.0000000000000000e+00
-5.0000000000000003e-02  1.6666666666666666e-01  0.0000000000000000e+00
-5.0000000000000003e-02  1.3888888888888890e-01  0.0000000000000000e+00
5.0000000000000003e-02  1.6666666666666666e-01  0.0000000000000000e+00
5.0000000000000003e-02  1.3888888888888890e-01  0.0000000000000000e+00
-5.0000000000000003e-02  2.2222222222222221e-01  0.0000000000000000e+00
-5.0000000000000003e-02  1.9444444444444442e-01  0.0000000000000000e+00
5.0000000000000003e-02  2.2222222222222221e-01  0.0000000000000000e+00
5.0000000000000003e-02  1.9444444444444442e-01  0.0000000000000000e+00
-5.0000000000000003e-02  2.7777777777777779e-01  0.0000000000000000e+00
-5.0000000000000003e-02  2.5000000000000000e-01  0.0000000000000000e+00
5.0000000000000003e-02  2.7777777777777779e-01  0.0000000000000000e+00
5.0000000000000003e-02  2.5000000000000000e-01  0.0000000000000000e+00
-5.0000000000000003e-02  3.3333333333333331e-01  0.0000000000000000e+00
-5.0000000000000003e-02  3.0555555555555558e-01  0.0000000000000000e+00
5.0000000000000003e-02  3.3333333333333331e-01  0.0000000000000000e+00
5.0000000000000003e-02  3.0555555555555558e-01  0.0000000000000000e+00
-5.0000000000000003e-02  3.8888888888888884e-01  0.0000000000000000e+00
-5.0000000000000003e-02  3.6111111111111105e-01  0.0000000000000000e+00
5.0000000000000003e-02  3.8888888888888884e-01  0.0000000000000000e+00
5.0000000000000003e-02  3.6111111111111105e-01  0.0000000000000000e+00
-5.0000000000000003e-02  4.4444444444444442e-01  0.0000000000000000e+00
-5.0000000000000003e-02  4.1666666666666663e-01  0.0000000000000000e+00
5.0000000000000003e-02  4.4444444444444442e-01  0.0000000000000000e+00
5.0000000000000003e-02  4.1666666666666663e-01  0.0000000000000000e+00
-5.0000000000000003e-02  5.0000000000000000e-01  0.0000000000000000e+00
-5.0000000000000003e-02  4.7222222222222221e-01  0.0000000000000000e+00
5.0000000000000003e-02  5.0000000000000000e-01  0.0000000000000000e+00
5.0000000000000003e-02  4.7222222222222221e-01  0.0000000000000000e+00
-5.0000000000000003e-02  5.5555555555555558e-01  0.0000000000000000e+00
-5.0000000000000003e-02  5.2777777777777779e-01  0.0000000000000000e+00
5.0000000000000003e-02  5.5555555555555558e-01  0.0000000000000000e+00
5.0000000000000003e-02  5.2777777777777779e-01  0.0000000000000000e+00
-5.0000000000000003e-02  6.1111111111111105e-01  0.0000000000000000e+00
-5.0000000000000003e-02  5.8333333333333326e-01  0.0000000000000000e+00
5.0000000000000003e-02  6.1111111111111105e-01  0.0000000000000000e+00
5.0000000000000003e-02  5.8333333333333326e-01  0.0000000000000000e+00
-5.0000000000000003e-02  6.6666666666666663e-01  0.0000000000000000e+00
-5.0000000000000003e-02  6.3888888888888884e-01  0.0000000000000000e+00
5.0000000000000003e-02  6.6666666666666663e-01  0.0000000000000000e+00
5.0000000000000003e-02  6.3888888888888884e-01  0.0000000000000000e+00
-5.0000000000000003e-02  7.2222222222222221e-01  0.0000000000000000e+00
-5.0000000000000003e-02  6.9444444444444442e-01  0.0000000000000000e+00
5.0000000000000003e-02  7.2222222222222221e-01  0.0000000000000000e+00
5.0000000000000003e-02  6.9444444444444442e-01  0.0000000000000000e+00
-5.0000000000000003e-02  7.7777777777777768e-01  0.0000000000000000e+00
-5.0000000000000003e-02  7.5000000000000000e-01  0.0000000000000000e+00
5.0000000000000003e-02  7.7777777777777768e-01  0.0000000000000000e+00
5.0000000000000003e-02  7.5000000000000000e-01  0.0000000000000000e+00
-5.0000000000000003e-02  8.3333333333333326e-01  0.0000000000000000e+00
-5.0000000000000003e-02  8.0555555555555547e-01  0.0000000000000000e+00
5.0000000000000003e-02  8.3333333333333326e-01  0.0000000000000000e+00
5.0000000000000003e-02  8.0555555555555547e-01  0.0000000000000000e+00
-5.0000000000000003e-02  8.8888888888888884e-01  0.0000000000000000e+00
-5.0000000000000003e-02  8.6111111111111105e-01  0.0000000000000000e+00
5.0000000000000003e-02  8.8888888888888884e-01  0.0000000000000000e+00
5.0000000000000003e-02  8.6111111111111105e-01  0.0000000000000000e+00
-5.0000000000000003e-02  9.4444444444444442e-01  0.0000000000000000e+00
-5.0000000000000003e-02  9.1666666666666663e-01  0.0000000000000000e+00
5.0000000000000003e-02  9.4444444444444442e-01  0.0000000000000000e+00
5.0000000000000003e-02  9.1666666666666663e-01  0.0000000000000000e+00
-5.0000000000000003e-02  1.0000000000000000e+00  0.0000000000000000e+00
-1.6666666666666670e-02  1.0000000000000000e+00  0.0000000000000000e+00
-5.0000000000000003e-02  9.7222222222222221e-01  0.0000000000000000e+00
-3.3333333333333340e-02  1.0000000000000000e+00  0.0000000000000000e+00
1.6666666666666663e-02  1.0000000000000000e+00  0.0000000000000000e+00
-3.4694469519536142e-18  1.0000000000000000e+00  0.0000000000000000e+00
5.0000000000000003e-02  1.0000000000000000e+00  0.0000000000000000e+00
5.0000000000000003e-02  9.7222222222222221e-01  0.0000000000000000e+00
3.3333333333333333e-02  1.0000000000000000e+00  0.0000000000000000e+00

CELLS 0 0


CELL_TYPES 0


POINT_DATA 79

VECTORS VertexNormals float

0.0000000000000000e+00 0.0000000000000000e+00 0
0.0000000000000000e+00 0.0000000000000000e+00 0
0.0000000000000000e+00 0.0000000000000000e+00 0
0.0000000000000000e+00 0.0000000000000000e+00 0
0.0000000000000000e+00 0.0000000000000000e+00 0
0.0000000000000000e+00 0.0000000000000000e+00 0
0.0000000000000000e+00 0.0000000000000000e+00 0
0.0000000000000000e+00 0.0000000000000000e+00 0
0.0000000000000000e+00 0.0000000000000000e+00 0
0.0000000000000000e+00 0.0000000000000000e+00 0
0.0000000000000000e+00 0.0000000000000000e+00 0
0.0000000000000000e+00 0.0000000000000000e+00 0
0.0000000000000000e+00 0.0000000000000000e+00 0
0.0000000000000000e+00 0.0000000000000000e+00 0
0.0000000000000000e+00 0.0000000000000000e+00 0
0.0000000000000000e+00 0.0000000000000000e+00 0
0.0000000000000000e+00 0.0000000000000000e+00 0
0.0000000000000000e+00 0.0000000000000000e+00 0
0.0000000000000000e+00 0.0000000000000000e+00 0
0.0000000000000000e+00 0.0000000000000000e+00 0
0.0000000000000000e+00 0.0000000000000000e+00 0
0.0000000000000000e+00 0.0000000000000000e+00 0
0.0000000000000000e+00 0.0000000000000000e+00 0
0.0000000000000000e+00 0.0000000000000000e+00 0
0.0000000000000000e+00 0.0000000000000000e+00 0
0.0000000000000000e+00 0.0000000000000000e+00 0
0.0000000000000000e+00 0.0000000000000000e+00 0
0.0000000000000000e+00 0.0000000000000000e+00 0
0.0000000000000000e+00 0.0000000000000000e+00 0
0.0000000000000000e+00 0.0000000000000000e+00 0
0.0000000000000000e+00 0.0000000000000000e+00 0
0.0000000000000000e+00 0.0000000000000000e+00 0
0.0000000000000000e+00 0.0000000000000000e+00 0
0.0000000000000000e+00 0.0000000000000000e+00 0
0.0000000000000000e+00 0.0000000000000000e+00 0
0.0000000000000000e+00 0.0000000000000000e+00 0
0.0000000000000000e+00 0.0000000000000000e+00 0
0.0000000000000000e+00 0.0000000000000000e+00 0
0.0000000000000000e+00 0.0000000000000000e+00 0
0.0000000000000000e+00 0.0000000000000000e+00 0
0.0000000000000000e+00 0.0000000000000000e+00 0
0.0000000000000000e+00 0.0000000000000000e+00 0
0.0000000000000000e+00 0.0000000000000000e+00 0
0.0000000000000000e+00 0.0000000000000000e+00 0
0.0000000000000000e+00 0.0000000000000000e+00 0
0.0000000000000000e+00 0.0000000000000000e+00 0
0.0000000000000000e+00 0.0000000000000000e+00 0
0.0000000000000000e+00 0.0000000000000000e+00 0
0.0000000000000000e+00 0.0000000000000000e+00 0
0.0000000000000000e+00 0.0000000000000000e+00 0
0.0000000000000000e+00 0.0000000000000000e+00 0
0.0000000000000000e+00 0.0000000000000000e+00 0
0.0000000000000000e+00 0.0000000000000000e+00 0
0.0000000000000000e+00 0.0000000000000000e+00 0
0.0000000000000000e+00 0.0000000000000000e+00 0
0.0000000000000000e+00 0.0000000000000000e+00 0
0.0000000000000000e+00 0.0000000000000000e+00 0
0.0000000000000000e+00 0.0000000000000000e+00 0
0.0000000000000000e+00 0.0000000000000000e+00 0
0.0000000000000000e+00 0.0000000000000000e+00 0
0.0000000000000000e+00 0.0000000000000000e+00 0
0.0000000000000000e+00 0.0000000000000000e+00 0
0.0000000000000000e+00 0.0000000000000000e+00 0
0.0000000000000000e+00 0.0000000000000000e+00 0
0.0000000000000000e+00 0.0000000000000000e+00 0
0.0000000000000000e+00 0.0000000000000000e+00 0
0.0000000000000000e+00 0.0000000000000000e+00 0
0.0000000000000000e+00 0.0000000000000000e+00 0
0.0000000000000000e+00 0.0000000000000000e+00 0
0.0000000000000000e+00 0.0000000000000000e+00 0
0.0000000000000000e+00 0.0000000000000000e+00 0
0.0000000000000000e+00 0.0000000000000000e+00 0
0.0000000000000000e+00 0.0000000000000000e+00 0
0.0000000000000000e+00 0.0000000000000000e+00 0
0.0000000000000000e+00 0.0000000000000000e+00 0
0.0000000000000000e+00 0.0000000000000000e+00 0
0.0000000000000000e+00 0.0000000000000000e+00 0
0.0000000000000000e+00 0.0000000000000000e+00 0
0.0000000000000000e+00 0.0000000000000000e+00 0

VECTORS Displacement float
0.0000000000000000e+00 0.0000000000000000e+00 0
1.6560122542942975e-03 2.0459330602684012e-03 0
6.9048572210230288e-04 1.0520950003729563e-03 0
0.0000000000000000e+00 0.0000000000000000e+00 0
1.7829598631468055e-03 -2.2040464154754469e-03 0
7.6907653699192309e-04 -1.1565443422071170e-03 0
5.1980867022636927e-03 3.9663718266583596e-03 0
3.1597539834680236e-03 3.0207070327571755e-03 0
5.2634856278043710e-03 -4.2277739627728343e-03 0
3.2637476279135718e-03 -3.2120906688347796e-03 0
1.0968635067256517e-02 5.7254596097984422e-03 0
7.8205515216617713e-03 4.8760456207412369e-03 0
1.1106917159663054e-02 -6.2331232501182899e-03 0
7.9121779266838801e-03 -5.2578427268665674e-03 0
1.8737994299290676e-02 7.1568024676170504e-03 0
1.4623962467071584e-02 6.4878150620444053e-03 0
1.8810573276841783e-02 -7.9092879535483194e-03 0
1.4751895975713965e-02 -7.1158929798151895e-03 0
2.7905807526364668e-02 8.3643539300517836e-03 0
2.3175960094924813e-02 7.7584643398256768e-03 0
2.8021844662581438e-02 -9.3477379969953353e-03 0
2.3241878012911096e-02 -8.6388998515028320e-03 0
3.8584736356041940e-02 9.5862640054020509e-03 0
3.3044995315878276e-02 8.9864863207536946e-03 0
3.8666266244665223e-02 -1.0728477886113200e-02 0
3.3173873747131960e-02 -1.0039036897477958e-02 0
5.0721754483159236e-02 1.0613628734704963e-02 0
4.4518034848015545e-02 1.0120448775128209e-02 0
5.0853704380327436e-02 -1.1949101086960272e-02 0
4.4586796549543672e-02 -1.1381284248283786e-02 0
6.3887451775257995e-02 1.1608445436801066e-02 0
5.7149320483597943e-02 1.1112526218775134e-02 0
6.3920347114908294e-02 -1.2997564050756243e-02 0
5.7290217256307438e-02 -1.2458422534655173e-02 0
7.8192150282991951e-02 1.2615541746019155e-02 0
7.0901015681835600e-02 1.2101951498458592e-02 0
7.8284452001650462e-02 -1.4190237102290518e-02 0
7.0896135741261357e-02 -1.3603263697028117e-02 0
9.3819373924197882e-02 1.3523143450942479e-02 0
8.5827867562880966e-02 1.3116941236684256e-02 0
9.3889970829170527e-02 -1.5079500105761000e-02 0
8.5978385495026788e-02 -1.4680948367921991e-02 0
1.1022440077049098e-01 1.3887411201690007e-02 0
1.0201280229063857e-01 1.3757093708905828e-02 0
1.1025083028088056e-01 -1.5593410832256913e-02 0
1.0197752903078841e-01 -1.5383833528204920e-02 0
1.2679710163758659e-01 1.3998393440988070e-02 0
1.1846696982378263e-01 1.3977407369964780e-02 0
1.2689438701075023e-01 -1.5598066437313434e-02 0
1.1862075615759782e-01 -1.5649562912774039e-02 0
1.4321453916410362e-01 1.3747992611606464e-02 0
1.3509061489166108e-01 1.3891001378150487e-02 0
1.4321362941905003e-01 -1.5391926119158589e-02 0
1.3507603358352221e-01 -1.5505026142824535e-02 0
1.5925023907438146e-01 1.3650306853424967e-02 0
1.5121508659280547e-01 1.3677312894205337e-02 0
1.5931258970616269e-01 -1.5241686760915928e-02 0
1.5127836268065950e-01 -1.5299221284177775e-02 0
1.7528656690911554e-01 1.3488259934646141e-02 0
1.6733461042196346e-01 1.3579842343724433e-02 0
1.7529195159129501e-01 -1.5111411890262983e-02 0
1.6733644070843945e-01 -1.5174448330911994e-02 0
1.9103932147175184e-01 1.3467566118392595e-02 0
1.8315092377180237e-01 1.3462110497764570e-02 0
1.9114557401162757e-01 -1.4993272296198382e-02 0
1.8322628038472430e-01 -1.5061958567106225e-02 0
2.0680572454166241e-01 1.3489218502798783e-02 0
1.9893189668904182e-01 1.3469916823996061e-02 0
2.0680373792818935e-01 -1.4891232269206401e-02 0
1.9898059363134335e-01 -1.4926122732035326e-02 0
2.2258953062048234e-01 1.3556443708250890e-02 0
2.2258384791941921e-01 4.0567190022257425e-03 0
2.1468546772922120e-01 1.3527928729733381e-02 0
2.2258553565312131e-01 8.8072856349596731e-03 0
2.2258539118034384e-01 -5.4461009867683742e-03 0
2.2258488403164092e-01 -7.0132437341078897e-04 0
2.2258741908784108e-01 -1.4896252625392133e-02 0
2.1468915114583209e-01 -1.4893781371084045e-02 0
2.2258625955554959e-01 -1.0168487589824006e-02 0

VECTORS Stress float
1.4780189984059217e+02 -2.1253279435033974e+01 0
1.4160816362842985e+02 -3.2158567906457312e+00 0
1.4314110107294306e+02 -6.2146875054525683e+00 0
-4.4611580651259288e+00 -1.4505291170670233e+01 0
-1.1945639176604208e+01 3.2262112812779082e+00 0
-1.0144204341553085e+01 -1.2287904582675717e+00 0
1.4260478271742656e+02 -1.1963719685243234e+01 0
1.4204409586499489e+02 -7.2561169945845831e+00 0
-1.0859709232861587e+01 6.2661993435767993e-01 0
-1.1513656863982765e+01 2.1870246550331496e+00 0
1.4208577571946347e+02 -1.6875000631622612e+01 0
1.4241380570153845e+02 -1.4684664674376670e+01 0
-1.0874287205004709e+01 1.4156879567731502e+00 0
-1.0801534827378564e+01 8.9788614002994382e-01 0
1.4108733893088640e+02 -2.1002244829810941e+01 0
1.4159013497155559e+02 -1.8979290554292668e+01 0
-1.0407793942180222e+01 1.7099199992394940e+00 0
-1.0664304304638621e+01 1.6428361790489632e+00 0
1.3942600609808991e+02 -2.4339642232983721e+01 0
1.4035556722662648e+02 -2.2770266998251625e+01 0
-9.5278770520101919e+00 1.8185354387254975e+00 0
-1.0006645656320325e+01 1.7593570014298336e+00 0
1.3688975075801127e+02 -2.7409616036444088e+01 0
1.3833355679044698e+02 -2.5879153404633346e+01 0
-8.3340965706991383e+00 1.8341173320461488e+00 0
-9.0189908783040966e+00 1.8475686565331451e+00 0
1.3362033888981546e+02 -2.9834440754849709e+01 0
1.3536531234612380e+02 -2.8830844890396392e+01 0
-6.8163573254753835e+00 1.6805478160209297e+00 0
-7.6630014302434368e+00 1.8082663776678558e+00 0
1.2971219865993217e+02 -3.1349640623859283e+01 0
1.3176304365731897e+02 -3.0615934465722844e+01 0
-5.0168285600508007e+00 1.3732747481501875e+00 0
-5.9376387279514482e+00 1.5337723088773050e+00 0
1.2496625592690216e+02 -3.2829669565082035e+01 0
1.2740187757310572e+02 -3.2082782360169340e+01 0
-3.0170685137932942e+00 9.7369467440224255e-01 0
-4.0137429212350604e+00 1.1791754876741560e+00 0
1.1950877315063248e+02 -3.4071612639338042e+01 0
1.2225712281018045e+02 -3.3527678740191668e+01 0
-6.5636141232355172e-01 3.3511377504698814e-01 0
-1.8605762886283479e+00 6.4206693614543120e-01 0
1.1424428089715235e+02 -3.3627697241311495e+01 0
1.1684044820444660e+02 -3.4084939768591681e+01 0
2.0733661891701018e+00 -4.9048155484206468e-01 0
6.5800317929564045e-01 -6.3146676606766761e-02 0
1.0897391201607850e+02 -3.2136385107025966e+01 0
1.1164735606677664e+02 -3.2963837393318187e+01 0
5.1279631261212160e+00 -1.3638344913062586e+00 0
3.5576268573779188e+00 -8.8653426896675214e-01 0
1.0313989888929652e+02 -3.0044188718708149e+01 0
1.0615949431579699e+02 -3.1172774357219303e+01 0
8.1094591924000241e+00 -2.1674748656672396e+00 0
6.6660348388227320e+00 -1.7624259660922057e+00 0
9.6140053211837198e+01 -2.7619915257408778e+01 0
9.9823754399792477e+01 -2.8794731076018788e+01 0
1.0667523628134923e+01 -2.9274666393372435e+00 0
9.4373740493295415e+00 -2.5208384800523547e+00 0
8.7195818961737587e+01 -2.4596692702577176e+01 0
9.1988517334458066e+01 -2.6440363263691992e+01 0
1.2659529828176424e+01 -3.3972390023828609e+00 0
1.1778128975144128e+01 -3.3561900731285501e+00 0
7.5363415086533450e+01 -1.9553903748131610e+01 0
8.1618159620729202e+01 -2.1479381687148312e+01 0
1.3883784275606281e+01 -2.9534704063417720e+00 0
1.3208108344161275e+01 -2.8106715205257391e+00 0
6.1118600794368938e+01 -2.9191100161899438e+01 0
6.9125941192289787e+01 -2.5359747999067277e+01 0
1.7449880397455921e+01 -1.0241469293679323e+01 0
1.5878630961946115e+01 -7.2622258175347980e+00 0
2.7867899493337639e+01 6.0929431961627955e+01 0
1.5016197621765286e+01 5.8027798562131956e+01 0
4.7376848029329807e+01 -4.0169981562525905e+00 0
1.8978324847775525e+01 6.6119898483803482e+01 0
1.1487108049582950e+01 3.6139717799018335e+01 0
1.3091065324995057e+01 4.6057811612703830e+01 0
1.0188330474029712e+00 2.9573772374958800e+01 0
1.3860709006617455e+01 -4.1524471691392506e-01 0
8.2695851426311009e+00 2.9695226420601387e+01 0

