# vtk DataFile Version 2.0

ASCII

DATASET UNSTRUCTURED_GRID

POINTS 79 float 

-5.0000000000000003e-02  0.0000000000000000e+00  0.0000000000000000e+00
-5.0000000000000003e-02  5.5555555555555552e-02  0.0000000000000000e+00
-5.0000000000000003e-02  2.7777777777777776e-02  0.0000000000000000e+00
5.0000000000000003e-02  0.0000000000000000e+00  0.0000000000000000e+00
5.0000000000000003e-02  5.5555555555555552e-02  0.0000000000000000e+00
5.0000000000000003e-02  2.7777777777777776e-02  0.0000000000000000e+00
-5.0000000000000003e-02  1.1111111111111110e-01  0.0000000000000000e+00
-5.0000000000000003e-02  8.3333333333333329e-02  0.0000000000000000e+00
5.0000000000000003e-02  1.1111111111111110e-01  0.0000000000000000e+00
5.0000000000000003e-02  8.3333333333333329e-02  0.0000000000000000e+00
-5.0000000000000003e-02  1.6666666666666666e-01  0.0000000000000000e+00
-5.0000000000000003e-02  1.3888888888888890e-01  0.0000000000000000e+00
5.0000000000000003e-02  1.6666666666666666e-01  0.0000000000000000e+00
5.0000000000000003e-02  1.3888888888888890e-01  0.0000000000000000e+00
-5.0000000000000003e-02  2.2222222222222221e-01  0.0000000000000000e+00
-5.0000000000000003e-02  1.9444444444444442e-01  0.0000000000000000e+00
5.0000000000000003e-02  2.2222222222222221e-01  0.0000000000000000e+00
5.0000000000000003e-02  1.9444444444444442e-01  0.0000000000000000e+00
-5.0000000000000003e-02  2.7777777777777779e-01  0.0000000000000000e+00
-5.0000000000000003e-02  2.5000000000000000e-01  0.0000000000000000e+00
5.0000000000000003e-02  2.7777777777777779e-01  0.0000000000000000e+00
5.0000000000000003e-02  2.5000000000000000e-01  0.0000000000000000e+00
-5.0000000000000003e-02  3.3333333333333331e-01  0.0000000000000000e+00
-5.0000000000000003e-02  3.0555555555555558e-01  0.0000000000000000e+00
5.0000000000000003e-02  3.3333333333333331e-01  0.0000000000000000e+00
5.0000000000000003e-02  3.0555555555555558e-01  0.0000000000000000e+00
-5.0000000000000003e-02  3.8888888888888884e-01  0.0000000000000000e+00
-5.0000000000000003e-02  3.6111111111111105e-01  0.0000000000000000e+00
5.0000000000000003e-02  3.8888888888888884e-01  0.0000000000000000e+00
5.0000000000000003e-02  3.6111111111111105e-01  0.0000000000000000e+00
-5.0000000000000003e-02  4.4444444444444442e-01  0.0000000000000000e+00
-5.0000000000000003e-02  4.1666666666666663e-01  0.0000000000000000e+00
5.0000000000000003e-02  4.4444444444444442e-01  0.0000000000000000e+00
5.0000000000000003e-02  4.1666666666666663e-01  0.0000000000000000e+00
-5.0000000000000003e-02  5.0000000000000000e-01  0.0000000000000000e+00
-5.0000000000000003e-02  4.7222222222222221e-01  0.0000000000000000e+00
5.0000000000000003e-02  5.0000000000000000e-01  0.0000000000000000e+00
5.0000000000000003e-02  4.7222222222222221e-01  0.0000000000000000e+00
-5.0000000000000003e-02  5.5555555555555558e-01  0.0000000000000000e+00
-5.0000000000000003e-02  5.2777777777777779e-01  0.0000000000000000e+00
5.0000000000000003e-02  5.5555555555555558e-01  0.0000000000000000e+00
5.0000000000000003e-02  5.2777777777777779e-01  0.0000000000000000e+00
-5.0000000000000003e-02  6.1111111111111105e-01  0.0000000000000000e+00
-5.0000000000000003e-02  5.8333333333333326e-01  0.0000000000000000e+00
5.0000000000000003e-02  6.1111111111111105e-01  0.0000000000000000e+00
5.0000000000000003e-02  5.8333333333333326e-01  0.0000000000000000e+00
-5.0000000000000003e-02  6.6666666666666663e-01  0.0000000000000000e+00
-5.0000000000000003e-02  6.3888888888888884e-01  0.0000000000000000e+00
5.0000000000000003e-02  6.6666666666666663e-01  0.0000000000000000e+00
5.0000000000000003e-02  6.3888888888888884e-01  0.0000000000000000e+00
-5.0000000000000003e-02  7.2222222222222221e-01  0.0000000000000000e+00
-5.0000000000000003e-02  6.9444444444444442e-01  0.0000000000000000e+00
5.0000000000000003e-02  7.2222222222222221e-01  0.0000000000000000e+00
5.0000000000000003e-02  6.9444444444444442e-01  0.0000000000000000e+00
-5.0000000000000003e-02  7.7777777777777768e-01  0.0000000000000000e+00
-5.0000000000000003e-02  7.5000000000000000e-01  0.0000000000000000e+00
5.0000000000000003e-02  7.7777777777777768e-01  0.0000000000000000e+00
5.0000000000000003e-02  7.5000000000000000e-01  0.0000000000000000e+00
-5.0000000000000003e-02  8.3333333333333326e-01  0.0000000000000000e+00
-5.0000000000000003e-02  8.0555555555555547e-01  0.0000000000000000e+00
5.0000000000000003e-02  8.3333333333333326e-01  0.0000000000000000e+00
5.0000000000000003e-02  8.0555555555555547e-01  0.0000000000000000e+00
-5.0000000000000003e-02  8.8888888888888884e-01  0.0000000000000000e+00
-5.0000000000000003e-02  8.6111111111111105e-01  0.0000000000000000e+00
5.0000000000000003e-02  8.8888888888888884e-01  0.0000000000000000e+00
5.0000000000000003e-02  8.6111111111111105e-01  0.0000000000000000e+00
-5.0000000000000003e-02  9.4444444444444442e-01  0.0000000000000000e+00
-5.0000000000000003e-02  9.1666666666666663e-01  0.0000000000000000e+00
5.0000000000000003e-02  9.4444444444444442e-01  0.0000000000000000e+00
5.0000000000000003e-02  9.1666666666666663e-01  0.0000000000000000e+00
-5.0000000000000003e-02  1.0000000000000000e+00  0.0000000000000000e+00
-1.6666666666666670e-02  1.0000000000000000e+00  0.0000000000000000e+00
-5.0000000000000003e-02  9.7222222222222221e-01  0.0000000000000000e+00
-3.3333333333333340e-02  1.0000000000000000e+00  0.0000000000000000e+00
1.6666666666666663e-02  1.0000000000000000e+00  0.0000000000000000e+00
-3.4694469519536142e-18  1.0000000000000000e+00  0.0000000000000000e+00
5.0000000000000003e-02  1.0000000000000000e+00  0.0000000000000000e+00
5.0000000000000003e-02  9.7222222222222221e-01  0.0000000000000000e+00
3.3333333333333333e-02  1.0000000000000000e+00  0.0000000000000000e+00

CELLS 0 0


CELL_TYPES 0


POINT_DATA 79

VECTORS VertexNormals float

0.0000000000000000e+00 0.0000000000000000e+00 0
0.0000000000000000e+00 0.0000000000000000e+00 0
0.0000000000000000e+00 0.0000000000000000e+00 0
0.0000000000000000e+00 0.0000000000000000e+00 0
0.0000000000000000e+00 0.0000000000000000e+00 0
0.0000000000000000e+00 0.0000000000000000e+00 0
0.0000000000000000e+00 0.0000000000000000e+00 0
0.0000000000000000e+00 0.0000000000000000e+00 0
0.0000000000000000e+00 0.0000000000000000e+00 0
0.0000000000000000e+00 0.0000000000000000e+00 0
0.0000000000000000e+00 0.0000000000000000e+00 0
0.0000000000000000e+00 0.0000000000000000e+00 0
0.0000000000000000e+00 0.0000000000000000e+00 0
0.0000000000000000e+00 0.0000000000000000e+00 0
0.0000000000000000e+00 0.0000000000000000e+00 0
0.0000000000000000e+00 0.0000000000000000e+00 0
0.0000000000000000e+00 0.0000000000000000e+00 0
0.0000000000000000e+00 0.0000000000000000e+00 0
0.0000000000000000e+00 0.0000000000000000e+00 0
0.0000000000000000e+00 0.0000000000000000e+00 0
0.0000000000000000e+00 0.0000000000000000e+00 0
0.0000000000000000e+00 0.0000000000000000e+00 0
0.0000000000000000e+00 0.0000000000000000e+00 0
0.0000000000000000e+00 0.0000000000000000e+00 0
0.0000000000000000e+00 0.0000000000000000e+00 0
0.0000000000000000e+00 0.0000000000000000e+00 0
0.0000000000000000e+00 0.0000000000000000e+00 0
0.0000000000000000e+00 0.0000000000000000e+00 0
0.0000000000000000e+00 0.0000000000000000e+00 0
0.0000000000000000e+00 0.0000000000000000e+00 0
0.0000000000000000e+00 0.0000000000000000e+00 0
0.0000000000000000e+00 0.0000000000000000e+00 0
0.0000000000000000e+00 0.0000000000000000e+00 0
0.0000000000000000e+00 0.0000000000000000e+00 0
0.0000000000000000e+00 0.0000000000000000e+00 0
0.0000000000000000e+00 0.0000000000000000e+00 0
0.0000000000000000e+00 0.0000000000000000e+00 0
0.0000000000000000e+00 0.0000000000000000e+00 0
0.0000000000000000e+00 0.0000000000000000e+00 0
0.0000000000000000e+00 0.0000000000000000e+00 0
0.0000000000000000e+00 0.0000000000000000e+00 0
0.0000000000000000e+00 0.0000000000000000e+00 0
0.0000000000000000e+00 0.0000000000000000e+00 0
0.0000000000000000e+00 0.0000000000000000e+00 0
0.0000000000000000e+00 0.0000000000000000e+00 0
0.0000000000000000e+00 0.0000000000000000e+00 0
0.0000000000000000e+00 0.0000000000000000e+00 0
0.0000000000000000e+00 0.0000000000000000e+00 0
0.0000000000000000e+00 0.0000000000000000e+00 0
0.0000000000000000e+00 0.0000000000000000e+00 0
0.0000000000000000e+00 0.0000000000000000e+00 0
0.0000000000000000e+00 0.0000000000000000e+00 0
0.0000000000000000e+00 0.0000000000000000e+00 0
0.0000000000000000e+00 0.0000000000000000e+00 0
0.0000000000000000e+00 0.0000000000000000e+00 0
0.0000000000000000e+00 0.0000000000000000e+00 0
0.0000000000000000e+00 0.0000000000000000e+00 0
0.0000000000000000e+00 0.0000000000000000e+00 0
0.0000000000000000e+00 0.0000000000000000e+00 0
0.0000000000000000e+00 0.0000000000000000e+00 0
0.0000000000000000e+00 0.0000000000000000e+00 0
0.0000000000000000e+00 0.0000000000000000e+00 0
0.0000000000000000e+00 0.0000000000000000e+00 0
0.0000000000000000e+00 0.0000000000000000e+00 0
0.0000000000000000e+00 0.0000000000000000e+00 0
0.0000000000000000e+00 0.0000000000000000e+00 0
0.0000000000000000e+00 0.0000000000000000e+00 0
0.0000000000000000e+00 0.0000000000000000e+00 0
0.0000000000000000e+00 0.0000000000000000e+00 0
0.0000000000000000e+00 0.0000000000000000e+00 0
0.0000000000000000e+00 0.0000000000000000e+00 0
0.0000000000000000e+00 0.0000000000000000e+00 0
0.0000000000000000e+00 0.0000000000000000e+00 0
0.0000000000000000e+00 0.0000000000000000e+00 0
0.0000000000000000e+00 0.0000000000000000e+00 0
0.0000000000000000e+00 0.0000000000000000e+00 0
0.0000000000000000e+00 0.0000000000000000e+00 0
0.0000000000000000e+00 0.0000000000000000e+00 0
0.0000000000000000e+00 0.0000000000000000e+00 0

VECTORS Displacement float
0.0000000000000000e+00 0.0000000000000000e+00 0
1.5214154182582782e-03 1.9516222219979262e-03 0
6.6742880065123224e-04 1.0000603121258350e-03 0
0.0000000000000000e+00 0.0000000000000000e+00 0
1.5300348797821696e-03 -2.0467191005661169e-03 0
6.3954281348965378e-04 -1.0397325012269543e-03 0
5.0560771670775141e-03 3.8839091040620607e-03 0
2.9969750181781359e-03 2.9432572894631005e-03 0
5.1133343427023081e-03 -3.9767126276356573e-03 0
3.0589032746143456e-03 -3.0476051387804126e-03 0
1.0618561254571876e-02 5.4086355328338675e-03 0
7.6118525257382738e-03 4.6984067724466054e-03 0
1.0675882208636918e-02 -5.5309656093943445e-03 0
7.6335568906842934e-03 -4.8027667845794743e-03 0
1.7725182955332333e-02 6.4254449823347246e-03 0
1.3996831309067337e-02 5.9961019670076391e-03 0
1.7848714582596695e-02 -6.5153485521387668e-03 0
1.4124415016126293e-02 -6.1043424609020496e-03 0
2.5613363889826796e-02 6.5921004107897738e-03 0
2.1685579226366325e-02 6.5993497224716719e-03 0
2.5661200427763736e-02 -6.8249120125543107e-03 0
2.1740889055598147e-02 -6.7337533100508178e-03 0
3.3212576453849299e-02 6.3570669535130703e-03 0
2.9431310327985884e-02 6.5055004676764280e-03 0
3.3352349837372466e-02 -6.6738734392779381e-03 0
2.9559654505246308e-02 -6.8019124060461466e-03 0
4.0400132583614863e-02 5.8322049754731108e-03 0
3.6898258384211055e-02 6.1154395307569829e-03 0
4.0457863162062319e-02 -6.2623508175390580e-03 0
3.6968724246584352e-02 -6.4814810933238685e-03 0
4.6913077607316445e-02 5.2051364262776529e-03 0
4.3732396480536444e-02 5.5361769118648886e-03 0
4.7009129485214879e-02 -5.6760771261427671e-03 0
4.3823678343151005e-02 -5.9950218093686196e-03 0
5.2639509177539692e-02 4.3017478547233553e-03 0
4.9913350458945599e-02 4.7914953370422359e-03 0
5.2707538233128744e-02 -4.8365929877707201e-03 0
4.9992864429596134e-02 -5.2869607644214743e-03 0
5.7157378518392414e-02 3.2619221737226678e-03 0
5.5043443881253110e-02 3.7795430702509047e-03 0
5.7238031559235972e-02 -3.9158281640297478e-03 0
5.5112789853816152e-02 -4.3698979188089397e-03 0
6.0506080454181946e-02 2.3126286558366733e-03 0
5.8984552392230168e-02 2.7599928214881260e-03 0
6.0597113327859845e-02 -3.0299233829449495e-03 0
5.9074760770989040e-02 -3.4611131339742553e-03 0
6.2967256882721714e-02 1.5955219132744477e-03 0
6.1807075535599859e-02 1.9497872697108046e-03 0
6.3036521073477250e-02 -2.3547001620420772e-03 0
6.1887530584055619e-02 -2.6718743981997638e-03 0
6.4683368706045200e-02 7.9119314783442508e-04 0
6.3944409104243968e-02 1.1936294373243006e-03 0
6.4797196672888288e-02 -1.6892924042536425e-03 0
6.4033432212273839e-02 -2.0293718838965981e-03 0
6.5583116693380322e-02 1.8824852853128419e-04 0
6.5214755371147973e-02 4.5465861329690424e-04 0
6.5592201531716410e-02 -1.1609371516081456e-03 0
6.5282297636088893e-02 -1.3825981088760515e-03 0
6.6007146593346958e-02 -1.1697416799212644e-04 0
6.5823484073051858e-02 2.4909055200370033e-06 0
6.6108378808786131e-02 -8.7938732106219227e-04 0
6.5867839575503961e-02 -1.0151403694534514e-03 0
6.6331851791151142e-02 -2.6634188968976307e-04 0
6.6176115044221856e-02 -2.0004813689584739e-04 0
6.6347638783785329e-02 -6.7947438031320368e-04 0
6.6264575710720808e-02 -7.5818861524914463e-04 0
6.6541670933215807e-02 -3.8504165128717830e-04 0
6.6464033795198468e-02 -3.2992957377378496e-04 0
6.6556719940709941e-02 -6.5180463540371681e-04 0
6.6434684949515724e-02 -6.6092953863652751e-04 0
6.6690898080847258e-02 -4.0840806625598830e-04 0
6.6675579788654085e-02 -5.2945866711749635e-04 0
6.6600909886571108e-02 -4.0787152964929466e-04 0
6.6686769709097843e-02 -4.7811311779074196e-04 0
6.6667886462737358e-02 -5.5357635889035034e-04 0
6.6669890739651377e-02 -5.4491534179972457e-04 0
6.6664956602180109e-02 -5.7392992662477760e-04 0
6.6638452013110111e-02 -6.0645882983699950e-04 0
6.6665984915480994e-02 -5.6633454581276417e-04 0

VECTORS Stress float
1.2649636695447326e+02 -3.4381617576184716e+01 0
1.0765870246840781e+02 8.8534249894876105e-01 0
1.1221500542099415e+02 -6.5295392471458431e+00 0
8.4637749141802061e+01 -3.2753844836762468e+01 0
6.4188423305046939e+01 2.4031887471941147e+00 0
6.9152985593407450e+01 -5.4158808527964144e+00 0
1.1076431770883900e+02 -9.5563271452027063e+00 0
1.0899865297805610e+02 -3.8611536148497621e+00 0
6.7189827741004279e+01 -6.4066682831495037e+00 0
6.5423595469726237e+01 -1.5034442603076714e+00 0
1.0994485798464805e+02 -1.2301975751965994e+01 0
1.1051962478074114e+02 -1.1334534889878542e+01 0
6.6673958624621307e+01 -7.9118320476681063e+00 0
6.7089141071035897e+01 -7.5475922709582637e+00 0
1.0911236359038155e+02 -1.4754776319704085e+01 0
1.0943564605537028e+02 -1.3553652363819310e+01 0
6.7048160988317875e+01 -9.1492108152889031e+00 0
6.6745657365535948e+01 -8.5168427733480314e+00 0
1.0834127884229754e+02 -1.5102105956775045e+01 0
1.0874161918571571e+02 -1.5247545785983661e+01 0
6.8251499233651032e+01 -9.5451988041195008e+00 0
6.7570041258428120e+01 -9.4978573550826901e+00 0
1.0740427262565944e+02 -1.4319637785640047e+01 0
1.0795247030597537e+02 -1.4750492884900680e+01 0
7.0173512306199541e+01 -9.2149981488664920e+00 0
6.9083748300196191e+01 -9.4314616980907928e+00 0
1.0619117868488378e+02 -1.3205597090138056e+01 0
1.0687601209194285e+02 -1.3827213317968450e+01 0
7.2655325431280872e+01 -8.7427426025535837e+00 0
7.1331289522596137e+01 -8.9612358732993620e+00 0
1.0465653454642384e+02 -1.1623293806283478e+01 0
1.0545662230713489e+02 -1.2473047124375814e+01 0
7.5518291339139978e+01 -8.1255793838810106e+00 0
7.4040181748219339e+01 -8.4944918640637646e+00 0
1.0278306639214723e+02 -9.5381989454008291e+00 0
1.0374240499748571e+02 -1.0638950390802780e+01 0
7.8674795471221131e+01 -6.9770210332162037e+00 0
7.7108457470423218e+01 -7.6047253632404654e+00 0
1.0045635440007646e+02 -7.1031701959789473e+00 0
1.0168147492386043e+02 -8.3406261950724314e+00 0
8.1761711221714137e+01 -5.5428130582689903e+00 0
8.0273010761828203e+01 -6.2819123306686038e+00 0
9.7381961662444070e+01 -4.9918022496320518e+00 0
9.9033992312555938e+01 -5.9873951025294332e+00 0
8.4309057063930112e+01 -4.1258921052445032e+00 0
8.3122190530112050e+01 -4.8174962851297707e+00 0
9.3338365288459968e+01 -3.3851955541486305e+00 0
9.5494921375146561e+01 -4.1012125263448027e+00 0
8.6079137258534900e+01 -3.0250560602108720e+00 0
8.5288314173023906e+01 -3.5111202107478618e+00 0
8.8142420868838286e+01 -1.8777608401786665e+00 0
9.0887720529715551e+01 -2.6372971153465983e+00 0
8.7036175097485710e+01 -1.8161307259681578e+00 0
8.6635617721305721e+01 -2.4834300397893685e+00 0
8.1353674023180176e+01 -8.8548370728825887e-01 0
8.4997667207978921e+01 -1.1442516760673271e+00 0
8.7314064805749467e+01 -8.7340202151381874e-01 0
8.7220494823077416e+01 -1.1232760361955698e+00 0
7.1850853084295338e+01 -1.8921465228754641e-01 0
7.7060482991702827e+01 -1.0091937216769153e+00 0
8.6445007527567256e+01 -4.2664327163245730e-01 0
8.7247682920035771e+01 -1.0133222928301606e+00 0
5.7969191492999457e+01 2.9262475084005999e+00 0
6.5440972080257438e+01 2.6621213638997148e+00 0
8.3616449868670685e+01 1.9404675148206749e+00 0
8.4523543171486835e+01 1.7101086385799107e+00 0
3.8161369070769261e+01 -2.2898030687099016e+01 0
4.9810929372076259e+01 -1.1559265270716210e+01 0
9.5296055960774794e+01 -1.6222597782048346e+01 0
9.0158481656676841e+01 -8.5439677522108610e+00 0
-5.2608282715311034e+00 1.2948020488867138e+02 0
1.4865848796144689e+00 1.3092162301595033e+02 0
2.0298836181113145e+01 1.7059708869740163e+01 0
7.1648344170502298e-01 1.3787922719973420e+02 0
-1.3335133864795665e+00 1.0680926926715571e+02 0
1.7431206768709018e-01 1.1881955360026899e+02 0
1.0225068207992130e+01 8.8646893708037794e+01 0
7.2778015256887969e+01 1.0658158177851448e+01 0
-2.4916884753743318e-02 9.6359626209621638e+01 0

