# vtk DataFile Version 2.0

ASCII

DATASET UNSTRUCTURED_GRID

POINTS 79 float 

-5.0000000000000003e-02  0.0000000000000000e+00  0.0000000000000000e+00
-5.0000000000000003e-02  5.5555555555555552e-02  0.0000000000000000e+00
-5.0000000000000003e-02  2.7777777777777776e-02  0.0000000000000000e+00
5.0000000000000003e-02  0.0000000000000000e+00  0.0000000000000000e+00
5.0000000000000003e-02  5.5555555555555552e-02  0.0000000000000000e+00
5.0000000000000003e-02  2.7777777777777776e-02  0.0000000000000000e+00
-5.0000000000000003e-02  1.1111111111111110e-01  0.0000000000000000e+00
-5.0000000000000003e-02  8.3333333333333329e-02  0.0000000000000000e+00
5.0000000000000003e-02  1.1111111111111110e-01  0.0000000000000000e+00
5.0000000000000003e-02  8.3333333333333329e-02  0.0000000000000000e+00
-5.0000000000000003e-02  1.6666666666666666e-01  0.0000000000000000e+00
-5.0000000000000003e-02  1.3888888888888890e-01  0.0000000000000000e+00
5.0000000000000003e-02  1.6666666666666666e-01  0.0000000000000000e+00
5.0000000000000003e-02  1.3888888888888890e-01  0.0000000000000000e+00
-5.0000000000000003e-02  2.2222222222222221e-01  0.0000000000000000e+00
-5.0000000000000003e-02  1.9444444444444442e-01  0.0000000000000000e+00
5.0000000000000003e-02  2.2222222222222221e-01  0.0000000000000000e+00
5.0000000000000003e-02  1.9444444444444442e-01  0.0000000000000000e+00
-5.0000000000000003e-02  2.7777777777777779e-01  0.0000000000000000e+00
-5.0000000000000003e-02  2.5000000000000000e-01  0.0000000000000000e+00
5.0000000000000003e-02  2.7777777777777779e-01  0.0000000000000000e+00
5.0000000000000003e-02  2.5000000000000000e-01  0.0000000000000000e+00
-5.0000000000000003e-02  3.3333333333333331e-01  0.0000000000000000e+00
-5.0000000000000003e-02  3.0555555555555558e-01  0.0000000000000000e+00
5.0000000000000003e-02  3.3333333333333331e-01  0.0000000000000000e+00
5.0000000000000003e-02  3.0555555555555558e-01  0.0000000000000000e+00
-5.0000000000000003e-02  3.8888888888888884e-01  0.0000000000000000e+00
-5.0000000000000003e-02  3.6111111111111105e-01  0.0000000000000000e+00
5.0000000000000003e-02  3.8888888888888884e-01  0.0000000000000000e+00
5.0000000000000003e-02  3.6111111111111105e-01  0.0000000000000000e+00
-5.0000000000000003e-02  4.4444444444444442e-01  0.0000000000000000e+00
-5.0000000000000003e-02  4.1666666666666663e-01  0.0000000000000000e+00
5.0000000000000003e-02  4.4444444444444442e-01  0.0000000000000000e+00
5.0000000000000003e-02  4.1666666666666663e-01  0.0000000000000000e+00
-5.0000000000000003e-02  5.0000000000000000e-01  0.0000000000000000e+00
-5.0000000000000003e-02  4.7222222222222221e-01  0.0000000000000000e+00
5.0000000000000003e-02  5.0000000000000000e-01  0.0000000000000000e+00
5.0000000000000003e-02  4.7222222222222221e-01  0.0000000000000000e+00
-5.0000000000000003e-02  5.5555555555555558e-01  0.0000000000000000e+00
-5.0000000000000003e-02  5.2777777777777779e-01  0.0000000000000000e+00
5.0000000000000003e-02  5.5555555555555558e-01  0.0000000000000000e+00
5.0000000000000003e-02  5.2777777777777779e-01  0.0000000000000000e+00
-5.0000000000000003e-02  6.1111111111111105e-01  0.0000000000000000e+00
-5.0000000000000003e-02  5.8333333333333326e-01  0.0000000000000000e+00
5.0000000000000003e-02  6.1111111111111105e-01  0.0000000000000000e+00
5.0000000000000003e-02  5.8333333333333326e-01  0.0000000000000000e+00
-5.0000000000000003e-02  6.6666666666666663e-01  0.0000000000000000e+00
-5.0000000000000003e-02  6.3888888888888884e-01  0.0000000000000000e+00
5.0000000000000003e-02  6.6666666666666663e-01  0.0000000000000000e+00
5.0000000000000003e-02  6.3888888888888884e-01  0.0000000000000000e+00
-5.0000000000000003e-02  7.2222222222222221e-01  0.0000000000000000e+00
-5.0000000000000003e-02  6.9444444444444442e-01  0.0000000000000000e+00
5.0000000000000003e-02  7.2222222222222221e-01  0.0000000000000000e+00
5.0000000000000003e-02  6.9444444444444442e-01  0.0000000000000000e+00
-5.0000000000000003e-02  7.7777777777777768e-01  0.0000000000000000e+00
-5.0000000000000003e-02  7.5000000000000000e-01  0.0000000000000000e+00
5.0000000000000003e-02  7.7777777777777768e-01  0.0000000000000000e+00
5.0000000000000003e-02  7.5000000000000000e-01  0.0000000000000000e+00
-5.0000000000000003e-02  8.3333333333333326e-01  0.0000000000000000e+00
-5.0000000000000003e-02  8.0555555555555547e-01  0.0000000000000000e+00
5.0000000000000003e-02  8.3333333333333326e-01  0.0000000000000000e+00
5.0000000000000003e-02  8.0555555555555547e-01  0.0000000000000000e+00
-5.0000000000000003e-02  8.8888888888888884e-01  0.0000000000000000e+00
-5.0000000000000003e-02  8.6111111111111105e-01  0.0000000000000000e+00
5.0000000000000003e-02  8.8888888888888884e-01  0.0000000000000000e+00
5.0000000000000003e-02  8.6111111111111105e-01  0.0000000000000000e+00
-5.0000000000000003e-02  9.4444444444444442e-01  0.0000000000000000e+00
-5.0000000000000003e-02  9.1666666666666663e-01  0.0000000000000000e+00
5.0000000000000003e-02  9.4444444444444442e-01  0.0000000000000000e+00
5.0000000000000003e-02  9.1666666666666663e-01  0.0000000000000000e+00
-5.0000000000000003e-02  1.0000000000000000e+00  0.0000000000000000e+00
-1.6666666666666670e-02  1.0000000000000000e+00  0.0000000000000000e+00
-5.0000000000000003e-02  9.7222222222222221e-01  0.0000000000000000e+00
-3.3333333333333340e-02  1.0000000000000000e+00  0.0000000000000000e+00
1.6666666666666663e-02  1.0000000000000000e+00  0.0000000000000000e+00
-3.4694469519536142e-18  1.0000000000000000e+00  0.0000000000000000e+00
5.0000000000000003e-02  1.0000000000000000e+00  0.0000000000000000e+00
5.0000000000000003e-02  9.7222222222222221e-01  0.0000000000000000e+00
3.3333333333333333e-02  1.0000000000000000e+00  0.0000000000000000e+00

CELLS 0 0


CELL_TYPES 0


POINT_DATA 79

VECTORS VertexNormals float

0.0000000000000000e+00 0.0000000000000000e+00 0
0.0000000000000000e+00 0.0000000000000000e+00 0
0.0000000000000000e+00 0.0000000000000000e+00 0
0.0000000000000000e+00 0.0000000000000000e+00 0
0.0000000000000000e+00 0.0000000000000000e+00 0
0.0000000000000000e+00 0.0000000000000000e+00 0
0.0000000000000000e+00 0.0000000000000000e+00 0
0.0000000000000000e+00 0.0000000000000000e+00 0
0.0000000000000000e+00 0.0000000000000000e+00 0
0.0000000000000000e+00 0.0000000000000000e+00 0
0.0000000000000000e+00 0.0000000000000000e+00 0
0.0000000000000000e+00 0.0000000000000000e+00 0
0.0000000000000000e+00 0.0000000000000000e+00 0
0.0000000000000000e+00 0.0000000000000000e+00 0
0.0000000000000000e+00 0.0000000000000000e+00 0
0.0000000000000000e+00 0.0000000000000000e+00 0
0.0000000000000000e+00 0.0000000000000000e+00 0
0.0000000000000000e+00 0.0000000000000000e+00 0
0.0000000000000000e+00 0.0000000000000000e+00 0
0.0000000000000000e+00 0.0000000000000000e+00 0
0.0000000000000000e+00 0.0000000000000000e+00 0
0.0000000000000000e+00 0.0000000000000000e+00 0
0.0000000000000000e+00 0.0000000000000000e+00 0
0.0000000000000000e+00 0.0000000000000000e+00 0
0.0000000000000000e+00 0.0000000000000000e+00 0
0.0000000000000000e+00 0.0000000000000000e+00 0
0.0000000000000000e+00 0.0000000000000000e+00 0
0.0000000000000000e+00 0.0000000000000000e+00 0
0.0000000000000000e+00 0.0000000000000000e+00 0
0.0000000000000000e+00 0.0000000000000000e+00 0
0.0000000000000000e+00 0.0000000000000000e+00 0
0.0000000000000000e+00 0.0000000000000000e+00 0
0.0000000000000000e+00 0.0000000000000000e+00 0
0.0000000000000000e+00 0.0000000000000000e+00 0
0.0000000000000000e+00 0.0000000000000000e+00 0
0.0000000000000000e+00 0.0000000000000000e+00 0
0.0000000000000000e+00 0.0000000000000000e+00 0
0.0000000000000000e+00 0.0000000000000000e+00 0
0.0000000000000000e+00 0.0000000000000000e+00 0
0.0000000000000000e+00 0.0000000000000000e+00 0
0.0000000000000000e+00 0.0000000000000000e+00 0
0.0000000000000000e+00 0.0000000000000000e+00 0
0.0000000000000000e+00 0.0000000000000000e+00 0
0.0000000000000000e+00 0.0000000000000000e+00 0
0.0000000000000000e+00 0.0000000000000000e+00 0
0.0000000000000000e+00 0.0000000000000000e+00 0
0.0000000000000000e+00 0.0000000000000000e+00 0
0.0000000000000000e+00 0.0000000000000000e+00 0
0.0000000000000000e+00 0.0000000000000000e+00 0
0.0000000000000000e+00 0.0000000000000000e+00 0
0.0000000000000000e+00 0.0000000000000000e+00 0
0.0000000000000000e+00 0.0000000000000000e+00 0
0.0000000000000000e+00 0.0000000000000000e+00 0
0.0000000000000000e+00 0.0000000000000000e+00 0
0.0000000000000000e+00 0.0000000000000000e+00 0
0.0000000000000000e+00 0.0000000000000000e+00 0
0.0000000000000000e+00 0.0000000000000000e+00 0
0.0000000000000000e+00 0.0000000000000000e+00 0
0.0000000000000000e+00 0.0000000000000000e+00 0
0.0000000000000000e+00 0.0000000000000000e+00 0
0.0000000000000000e+00 0.0000000000000000e+00 0
0.0000000000000000e+00 0.0000000000000000e+00 0
0.0000000000000000e+00 0.0000000000000000e+00 0
0.0000000000000000e+00 0.0000000000000000e+00 0
0.0000000000000000e+00 0.0000000000000000e+00 0
0.0000000000000000e+00 0.0000000000000000e+00 0
0.0000000000000000e+00 0.0000000000000000e+00 0
0.0000000000000000e+00 0.0000000000000000e+00 0
0.0000000000000000e+00 0.0000000000000000e+00 0
0.0000000000000000e+00 0.0000000000000000e+00 0
0.0000000000000000e+00 0.0000000000000000e+00 0
0.0000000000000000e+00 0.0000000000000000e+00 0
0.0000000000000000e+00 0.0000000000000000e+00 0
0.0000000000000000e+00 0.0000000000000000e+00 0
0.0000000000000000e+00 0.0000000000000000e+00 0
0.0000000000000000e+00 0.0000000000000000e+00 0
0.0000000000000000e+00 0.0000000000000000e+00 0
0.0000000000000000e+00 0.0000000000000000e+00 0
0.0000000000000000e+00 0.0000000000000000e+00 0

VECTORS Displacement float
0.0000000000000000e+00 0.0000000000000000e+00 0
1.1187781548531975e-03 1.1728085812031828e-03 0
5.2389893613904266e-04 6.5203162744182914e-04 0
0.0000000000000000e+00 0.0000000000000000e+00 0
9.7453182620095991e-04 -9.1332286533510787e-04 0
3.6130224507886370e-04 -4.9024068751235485e-04 0
2.9249415829568069e-03 1.9760610918005796e-03 0
1.9352477948545743e-03 1.6188774502792474e-03 0
2.8098300199788807e-03 -1.3985269757783155e-03 0
1.8464544319346731e-03 -1.2035103601381637e-03 0
5.2435168675696890e-03 2.4384769064675306e-03 0
4.0327977822603523e-03 2.2368798602114179e-03 0
5.1225477063666673e-03 -1.6371563556254144e-03 0
3.8864544008358603e-03 -1.5449396689442331e-03 0
7.7002602252877334e-03 2.5636423777960172e-03 0
6.5067822469721164e-03 2.5344774693304250e-03 0
7.6315241392291705e-03 -1.5474267643325493e-03 0
6.4196897602694664e-03 -1.6160482117978858e-03 0
1.0060103282325393e-02 2.5764684348841211e-03 0
8.8606553203117305e-03 2.5900712475397407e-03 0
1.0005267055790456e-02 -1.4264167512941612e-03 0
8.8008869630881587e-03 -1.4997736768524159e-03 0
1.2245121051145703e-02 2.2545498142679740e-03 0
1.1231057390234001e-02 2.4523946784026232e-03 0
1.2186373193076128e-02 -1.0003017993312699e-03 0
1.1175337947490909e-02 -1.2496197257656615e-03 0
1.3756475560595309e-02 1.8803748698415375e-03 0
1.3068988442416492e-02 2.0503495201462407e-03 0
1.3687927325166081e-02 -5.1345354195801143e-04 0
1.3005356840397065e-02 -7.4202897198283888e-04 0
1.4951519331309922e-02 1.5766129356169834e-03 0
1.4379623228603675e-02 1.7412261335936195e-03 0
1.4875209013725708e-02 -8.0129682666676733e-05 0
1.4306787024173002e-02 -3.1109289967267513e-04 0
1.5649359058949076e-02 1.0405334889980100e-03 0
1.5404539411899676e-02 1.3350856394594643e-03 0
1.5573649540111832e-02 5.8706338944276371e-04 0
1.5327366420259347e-02 2.2826119960452659e-04 0
1.5394573805107954e-02 4.7383344601845579e-04 0
1.5642344819910382e-02 7.3387702202029799e-04 0
1.5332824184263382e-02 1.2624257144401509e-03 0
1.5572295318120136e-02 9.5210655937858261e-04 0
1.4510626384788911e-02 2.5555218260447303e-04 0
1.4986457929945759e-02 3.1706060027286861e-04 0
1.4467251654911886e-02 1.5571523685071454e-03 0
1.4934432122406402e-02 1.4609389100447084e-03 0
1.3652885280093044e-02 3.8080995856357950e-04 0
1.4047152578630834e-02 2.8971276226024550e-04 0
1.3610040812706167e-02 1.4951094973877734e-03 0
1.4006950432952102e-02 1.5544749709587018e-03 0
1.3148862127258257e-02 6.1952964184795690e-04 0
1.3351579610420147e-02 5.0254041569282944e-04 0
1.3085009819992194e-02 1.3233756322326715e-03 0
1.3299236776729288e-02 1.4069535316097192e-03 0
1.2872495370978459e-02 7.3857067793382271e-04 0
1.3006218187586504e-02 6.9595530410766142e-04 0
1.2808790417530691e-02 1.2558953671821234e-03 0
1.2937583485785158e-02 1.2750511513829096e-03 0
1.2583867937841144e-02 8.0563026525833266e-04 0
1.2724025668618914e-02 7.6971906231020776e-04 0
1.2529662557239573e-02 1.2616513289014717e-03 0
1.2668451456924868e-02 1.2528331184533214e-03 0
1.2326342733110840e-02 8.2789140957389626e-04 0
1.2465708571445279e-02 8.3003495938093808e-04 0
1.2250419811641704e-02 1.3642129456041458e-03 0
1.2400109417996776e-02 1.3021687946142327e-03 0
1.1931318834973878e-02 7.9104368718644876e-04 0
1.2134698402352278e-02 8.0472666704792760e-04 0
1.1908746872088399e-02 1.4228455334123658e-03 0
1.2082335687825923e-02 1.4040385159425400e-03 0
1.1643994785271328e-02 8.6897500308896259e-04 0
1.1596990205298826e-02 9.9386185141057352e-04 0
1.1760542238180008e-02 8.2756005457852526e-04 0
1.1625120218125855e-02 9.2429299829047574e-04 0
1.1495379668579091e-02 1.1746901647640595e-03 0
1.1555147704986720e-02 1.0734828414084030e-03 0
1.1408311530515107e-02 1.5059465343992848e-03 0
1.1692292120508154e-02 1.4650777400942727e-03 0
1.1437695666852201e-02 1.3251175982701331e-03 0

VECTORS Stress float
1.3612460067556512e+02 -5.1717894892401588e+01 0
1.0999923818906009e+02 5.6984245011006607e+00 0
1.1635092542257985e+02 -7.7247619576666473e+00 0
1.2644803798025872e+02 -5.0578321828900044e+01 0
9.7922024167022101e+01 5.9804288457289090e+00 0
1.0468288380496909e+02 -7.2699187493775312e+00 0
1.1429812884774897e+02 -5.3321164691674614e+00 0
1.1182496199765181e+02 9.0690736993352061e-01 0
1.0284977379448451e+02 -4.9428915320373790e+00 0
9.9993918016036730e+01 1.2476219685155954e+00 0
1.1337295791882684e+02 -4.9450311901066826e+00 0
1.1403956059831673e+02 -5.7233721514329794e+00 0
1.0288105624947926e+02 -4.6102682338109844e+00 0
1.0309560079428628e+02 -5.3454282682196705e+00 0
1.1261464637564191e+02 -4.6771344907094949e+00 0
1.1287505631158373e+02 -4.6537478554059355e+00 0
1.0388464108265524e+02 -4.3508121690152279e+00 0
1.0326662799679735e+02 -4.3174058021646324e+00 0
1.1165158120851723e+02 -4.5973080722654771e+00 0
1.1219495272855974e+02 -4.6938341309696305e+00 0
1.0542882270439853e+02 -4.2958701407738502e+00 0
1.0462612420387549e+02 -4.3754747048924187e+00 0
1.1046305110324185e+02 -3.6239490903168203e+00 0
1.1112658797992050e+02 -4.2934509414937914e+00 0
1.0753288871258844e+02 -3.4307588269421068e+00 0
1.0634551359528304e+02 -4.0373276257020265e+00 0
1.0904975677867142e+02 -2.5389421548493729e+00 0
1.0985465497976577e+02 -2.9433838072116068e+00 0
1.1028975570106235e+02 -2.4883349119389280e+00 0
1.0879394521246238e+02 -2.8343180520106266e+00 0
1.0729415294745849e+02 -1.8170367568075179e+00 0
1.0820572015127911e+02 -2.2500887457456145e+00 0
1.1370986456699362e+02 -1.8574460988995725e+00 0
1.1189922753839119e+02 -2.2540889979576093e+00 0
1.0522363077135591e+02 -3.1849982001523358e-01 0
1.0625781272254289e+02 -1.1383419514877389e+00 0
1.1797895371123812e+02 -3.4041507332952392e-01 0
1.1578553877951398e+02 -1.1808844665587586e+00 0
1.0274636455153076e+02 1.3154838412119076e+00 0
1.0402488426680760e+02 5.3655244094718313e-01 0
1.2305056603954158e+02 1.5399871699076044e+00 0
1.2049081325093529e+02 6.2780462908032320e-01 0
9.9560723724463884e+01 1.8071074007796000e+00 0
1.0127482687727928e+02 1.7314371134592790e+00 0
1.2827034330659734e+02 2.2873533893334965e+00 0
1.2567625682388493e+02 2.0901247644651022e+00 0
9.5286599746633243e+01 1.3153668676334718e+00 0
9.7590623001850474e+01 1.6672335259608815e+00 0
1.3301595296519852e+02 1.8440859607954039e+00 0
1.3071515105741196e+02 2.2167776102961199e+00 0
8.9607500835880160e+01 8.4692435392445731e-01 0
9.2612952919034740e+01 1.0308747971657013e+00 0
1.3674366692610363e+02 1.2141424975811006e+00 0
1.3503042555104747e+02 1.5010817940016707e+00 0
8.2137382186869274e+01 3.3683312948433297e-01 0
8.6116305196626101e+01 7.8648198439622519e-01 0
1.3921105117354216e+02 6.5983358952573212e-01 0
1.3810177800306042e+02 1.0590937494180750e+00 0
7.1837253039965248e+01 6.2441586979285546e-01 0
7.7526346602060499e+01 -3.1978979133229757e-01 0
1.3924209668678080e+02 9.3624465813897473e-01 0
1.3988750405211445e+02 1.6577666161596483e-01 0
5.6579790653971457e+01 4.9795083004784004e+00 0
6.4961838588268449e+01 4.6958401989937215e+00 0
1.3444668075075342e+02 4.1328006489116405e+00 0
1.3631722933193825e+02 3.9258602785264713e+00 0
3.2042856597752085e+01 -3.3813374793707425e+01 0
4.6621061464982510e+01 -1.6731494718729934e+01 0
1.4861928731890248e+02 -2.2876846805329805e+01 0
1.4285797700135677e+02 -1.1515657938306887e+01 0
-1.4830727867191243e+01 1.9262094036293826e+02 0
1.7524151122315317e+00 2.0002977633591229e+02 0
1.2143510316781843e+01 2.5345736845045337e+01 0
-4.9966374636512256e-01 2.0682839338770057e+02 0
-3.9533762349008228e+00 1.6514161059897293e+02 0
-8.3928435758922149e-01 1.8460277745118339e+02 0
1.8298710337502953e+01 1.3382709618465651e+02 0
1.1282589083240852e+02 1.7291723289697430e+01 0
-1.4371680427003000e+00 1.4680639680963532e+02 0

